
     Program PWSCF v.7.5 starts on  6Aug2026 at  1:39:26 

     This program is part of the open-source Quantum ESPRESSO suite
     for quantum simulation of materials; please cite
         "P. Giannozzi et al., J. Phys.:Condens. Matter 21 395502 (2009);
         "P. Giannozzi et al., J. Phys.:Condens. Matter 29 465901 (2017);
         "P. Giannozzi et al., J. Chem. Phys. 152 154105 (2020);
          URL http://www.quantum-espresso.org", 
     in publications or presentations arising from this work. More details at
     http://www.quantum-espresso.org/quote

     Parallel version (MPI & OpenMP), running on      32 processor cores
     Number of MPI processes:                32
     Threads/MPI process:                     1

     MPI processes distributed on     1 nodes
     697099 MiB available memory on the printing compute node when the environment starts

     Reading input from aiida.in

     Current dimensions of program PWSCF are:
     Max number of different atomic species (ntypx) = 10
     Max number of k-points (npk) =  40000
     Max angular momentum in pseudopotentials (lmaxx) =  4
     file Ce.paw.z_12.atompaw.wentzcovitch.v1.2.upf: wavefunction(s)  6S 0P 5D 0D 4F 0F renormalized
     file Ce.paw.z_12.atompaw.wentzcovitch.v1.2.upf: wavefunction(s)  6S 0P 5D 0D 4F 0F renormalized
     file In.pbe-dn-rrkjus_psl.0.2.2.UPF: wavefunction(s)  5S renormalized

     Fixed quantization axis for GGA:     0.577350    0.577350    0.577350

     R & G space division:  proc/nbgrp/npool/nimage =      32
     Subspace diagonalization in iterative solution of the eigenvalue problem:
     one sub-group per band group will be used
     ELPA distributed-memory algorithm (size of sub-group:  5*  5 procs)


     Parallelization info
     --------------------
     sticks:   dense  smooth     PW     G-vecs:    dense   smooth      PW
     Min         312     156     38                23504     8310    1033
     Max         313     157     40                23509     8313    1039
     Sum       10005    4997   1245               752213   265955   33131

     Using Slab Decomposition



     bravais-lattice index     =            0
     lattice parameter (alat)  =      17.7219  a.u.
     unit-cell volume          =    5565.7960 (a.u.)^3
     number of atoms/cell      =           33
     number of atomic types    =            4
     number of electrons       =       408.00
     number of Kohn-Sham states=          490
     kinetic-energy cutoff     =      50.0000  Ry
     charge density cutoff     =     400.0000  Ry
     scf convergence threshold =      1.0E-05
     mixing beta               =       0.0500
     number of iterations used =           12  plain     mixing
     Exchange-correlation= PBE
                           (   1   4   3   4   0   0   0)
     Noncollinear calculation without spin-orbit


     celldm(1)=  17.721852  celldm(2)=   0.000000  celldm(3)=   0.000000
     celldm(4)=   0.000000  celldm(5)=   0.000000  celldm(6)=   0.000000

     crystal axes: (cart. coord. in units of alat)
               a(1) = (   1.000000   0.000000   0.000000 )  
               a(2) = (   0.000000   1.000000   0.000000 )  
               a(3) = (   0.000000   0.000000   1.000000 )  

     reciprocal axes: (cart. coord. in units 2 pi/alat)
               b(1) = (  1.000000  0.000000  0.000000 )  
               b(2) = (  0.000000  1.000000  0.000000 )  
               b(3) = (  0.000000  0.000000  1.000000 )  


     PseudoPot. # 1 for Ce read from file:
     ./pseudo/Ce.paw.z_12.atompaw.wentzcovitch.v1.2.upf
     MD5 check sum: 2241420ff980c77e0c917a2dc8a7e08e
     Pseudo is Projector augmented-wave + core cor, Zval = 12.0
     Generated using ATOMPAW code
     Shape of augmentation charge: BESSEL
     Using radial grid of 1102 points,  8 beta functions with: 
                l(1) =   0
                l(2) =   0
                l(3) =   1
                l(4) =   1
                l(5) =   2
                l(6) =   2
                l(7) =   3
                l(8) =   3
     Q(r) pseudized with 0 coefficients 


     PseudoPot. # 2 for Ce read from file:
     ./pseudo/Ce.paw.z_12.atompaw.wentzcovitch.v1.2.upf
     MD5 check sum: 2241420ff980c77e0c917a2dc8a7e08e
     Pseudo is Projector augmented-wave + core cor, Zval = 12.0
     Generated using ATOMPAW code
     Shape of augmentation charge: BESSEL
     Using radial grid of 1102 points,  8 beta functions with: 
                l(1) =   0
                l(2) =   0
                l(3) =   1
                l(4) =   1
                l(5) =   2
                l(6) =   2
                l(7) =   3
                l(8) =   3
     Q(r) pseudized with 0 coefficients 


     PseudoPot. # 3 for H  read from file:
     ./pseudo/H.pbe-rrkjus_psl.1.0.0.UPF
     MD5 check sum: f52b6d4d1c606e5624b1dc7b2218f220
     Pseudo is Ultrasoft, Zval =  1.0
     Generated using "atomic" code by A. Dal Corso  v.5.1
     Using radial grid of  929 points,  2 beta functions with: 
                l(1) =   0
                l(2) =   0
     Q(r) pseudized with 0 coefficients 


     PseudoPot. # 4 for In read from file:
     ./pseudo/In.pbe-dn-rrkjus_psl.0.2.2.UPF
     MD5 check sum: 25e7c42c3b55b68f4bf926be2e7201a4
     Pseudo is Ultrasoft + core correction, Zval = 13.0
     Generated using "atomic" code by A. Dal Corso  v.5.0.99 svn rev. 10869
     Using radial grid of 1241 points,  6 beta functions with: 
                l(1) =   0
                l(2) =   0
                l(3) =   1
                l(4) =   1
                l(5) =   2
                l(6) =   2
     Q(r) pseudized with 0 coefficients 


     atomic species   valence    mass     pseudopotential
     Ce1              12.00   140.11600     Ce( 1.00)
     Ce2              12.00   140.11600     Ce( 1.00)
     H                 1.00     1.00800     H ( 1.00)
     In               13.00   114.81800     In( 1.00)

     Starting charge structure 
     atomic species   charge
     Ce1             0.000
     Ce2             0.000
     H               1.000
     In              0.000

     No symmetry found


                                    s                        frac. trans.

      isym =  1     identity                                     

 Time Reversal            0
 cryst.   s( 1) = (     1          0          0      )
                  (     0          1          0      )
                  (     0          0          1      )

 cart.    s( 1) = (  1.0000000  0.0000000  0.0000000 )
                  (  0.0000000  1.0000000  0.0000000 )
                  (  0.0000000  0.0000000  1.0000000 )


   Cartesian axes

     site n.     atom                  positions (alat units)
         1        Ce1    tau(   1) = (  -0.0000002   0.0000004   0.0012076  )
         2        In     tau(   2) = (   0.2495700   0.2496094  -0.0011907  )
         3        In     tau(   3) = (   0.2509998   0.0000062   0.2500039  )
         4        In     tau(   4) = (  -0.0000004   0.2510243   0.2499857  )
         5        Ce2    tau(   5) = (  -0.0000010  -0.0000000   0.4987535  )
         6        In     tau(   6) = (   0.2495825   0.2495768   0.5011543  )
         7        In     tau(   7) = (   0.2469160   0.0000047   0.7499971  )
         8        In     tau(   8) = (  -0.0000000   0.2469412   0.7500131  )
         9        Ce2    tau(   9) = (  -0.0000021   0.5000008  -0.0008811  )
        10        In     tau(  10) = (   0.2495705   0.7503948  -0.0011773  )
        11        In     tau(  11) = (   0.2497065   0.4999973   0.2499951  )
        12        In     tau(  12) = (   0.0000031   0.7489764   0.2499901  )
        13        Ce1    tau(  13) = (  -0.0000020   0.5000003   0.5008696  )
        14        In     tau(  14) = (   0.2495824   0.7504240   0.5011552  )
        15        In     tau(  15) = (   0.2421813   0.4999991   0.7499948  )
        16        In     tau(  16) = (   0.0000034   0.7530594   0.7500174  )
        17        Ce2    tau(  17) = (   0.4999981  -0.0000000  -0.0009005  )
        18        In     tau(  18) = (   0.7504270   0.2496040  -0.0011941  )
        19        In     tau(  19) = (   0.7490022  -0.0000061   0.2499995  )
        20        In     tau(  20) = (   0.5000074   0.2497355   0.2500297  )
        21        Ce1    tau(  21) = (   0.4999990   0.0000007   0.5008998  )
        22        In     tau(  22) = (   0.7504152   0.2495757   0.5011549  )
        23        In     tau(  23) = (   0.7530785  -0.0000063   0.7499942  )
        24        In     tau(  24) = (   0.4999887   0.2422279   0.7500453  )
        25        Ce1    tau(  25) = (   0.4999984   0.5000012  -0.0065374  )
        26        In     tau(  26) = (   0.7504271   0.7503945  -0.0011829  )
        27        In     tau(  27) = (   0.7502975   0.5000001   0.2499990  )
        28        In     tau(  28) = (   0.5000030   0.7502656   0.2500336  )
        29        Ce2    tau(  29) = (   0.4999987   0.4999998   0.5066728  )
        30        In     tau(  30) = (   0.7504145   0.7504241   0.5011547  )
        31        In     tau(  31) = (   0.7578172   0.5000031   0.7499971  )
        32        In     tau(  32) = (   0.4999841   0.7577718   0.7500470  )
        33        H      tau(  33) = (   0.5000339   0.4999932   0.7498989  )

   Crystallographic axes

     site n.     atom                  positions (cryst. coord.)
         1        Ce1    tau(   1) = ( -0.0000002  0.0000004  0.0012076  )
         2        In     tau(   2) = (  0.2495700  0.2496094 -0.0011907  )
         3        In     tau(   3) = (  0.2509998  0.0000062  0.2500039  )
         4        In     tau(   4) = ( -0.0000004  0.2510243  0.2499857  )
         5        Ce2    tau(   5) = ( -0.0000010 -0.0000000  0.4987535  )
         6        In     tau(   6) = (  0.2495825  0.2495768  0.5011543  )
         7        In     tau(   7) = (  0.2469160  0.0000047  0.7499971  )
         8        In     tau(   8) = ( -0.0000000  0.2469412  0.7500131  )
         9        Ce2    tau(   9) = ( -0.0000021  0.5000008 -0.0008811  )
        10        In     tau(  10) = (  0.2495705  0.7503948 -0.0011773  )
        11        In     tau(  11) = (  0.2497065  0.4999973  0.2499951  )
        12        In     tau(  12) = (  0.0000031  0.7489764  0.2499901  )
        13        Ce1    tau(  13) = ( -0.0000020  0.5000003  0.5008696  )
        14        In     tau(  14) = (  0.2495824  0.7504240  0.5011552  )
        15        In     tau(  15) = (  0.2421813  0.4999991  0.7499948  )
        16        In     tau(  16) = (  0.0000034  0.7530594  0.7500174  )
        17        Ce2    tau(  17) = (  0.4999981 -0.0000000 -0.0009005  )
        18        In     tau(  18) = (  0.7504270  0.2496040 -0.0011941  )
        19        In     tau(  19) = (  0.7490022 -0.0000061  0.2499995  )
        20        In     tau(  20) = (  0.5000074  0.2497355  0.2500297  )
        21        Ce1    tau(  21) = (  0.4999990  0.0000007  0.5008998  )
        22        In     tau(  22) = (  0.7504152  0.2495757  0.5011549  )
        23        In     tau(  23) = (  0.7530785 -0.0000063  0.7499942  )
        24        In     tau(  24) = (  0.4999887  0.2422279  0.7500453  )
        25        Ce1    tau(  25) = (  0.4999984  0.5000012 -0.0065374  )
        26        In     tau(  26) = (  0.7504271  0.7503945 -0.0011829  )
        27        In     tau(  27) = (  0.7502975  0.5000001  0.2499990  )
        28        In     tau(  28) = (  0.5000030  0.7502656  0.2500336  )
        29        Ce2    tau(  29) = (  0.4999987  0.4999998  0.5066728  )
        30        In     tau(  30) = (  0.7504145  0.7504241  0.5011547  )
        31        In     tau(  31) = (  0.7578172  0.5000031  0.7499971  )
        32        In     tau(  32) = (  0.4999841  0.7577718  0.7500470  )
        33        H      tau(  33) = (  0.5000339  0.4999932  0.7498989  )

     number of k points=     1  Marzari-Vanderbilt smearing, width (Ry)=  0.0200
                       cart. coord. in units 2pi/alat
        k(    1) = (   0.0000000   0.0000000   0.0000000), wk =   1.0000000

                       cryst. coord.
        k(    1) = (   0.0000000   0.0000000   0.0000000), wk =   1.0000000

     Dense  grid:   752213 G-vectors     FFT dimensions: ( 120, 120, 120)

     Smooth grid:   265955 G-vectors     FFT dimensions: (  80,  80,  80)

     Dynamical RAM for                 wfc:      15.52 MB

     Dynamical RAM for     wfc (w. buffer):      15.52 MB

     Dynamical RAM for           str. fact:       1.43 MB

     Dynamical RAM for           local pot:       0.00 MB

     Dynamical RAM for          nlocal pot:      10.93 MB

     Dynamical RAM for                qrad:      15.41 MB

     Dynamical RAM for          rho,v,vnew:       9.58 MB

     Dynamical RAM for               rhoin:       3.19 MB

     Dynamical RAM for           G-vectors:       1.41 MB

     Dynamical RAM for          h,s,v(r/c):       0.44 MB

     Dynamical RAM for          <psi|beta>:      10.32 MB

     Dynamical RAM for      wfcinit/wfcrot:      28.78 MB

     Dynamical RAM for           addusdens:     208.77 MB

     Estimated static dynamical RAM per process >      62.79 MB

     Estimated max dynamical RAM per process >     271.56 MB

     Estimated total dynamical RAM >       8.49 GB
     Generating pointlists ...
     new r_m :   0.1005 (alat units)  1.7805 (a.u.) for type    1
     new r_m :   0.1003 (alat units)  1.7780 (a.u.) for type    2
     new r_m :   0.1003 (alat units)  1.7780 (a.u.) for type    3
     new r_m :   0.1063 (alat units)  1.8843 (a.u.) for type    4

     Initial potential from superposition of free atoms

     starting charge     407.8548, renormalised to     408.0000

 ==============================================================================
     atom number    1 relative position :   -0.0000   0.0000   0.0012
     charge :     6.954409  (integrated on a sphere of radius 0.100)
     magnetization :          2.773396    2.773396    2.773397
     magnetization/charge:    0.398797    0.398797    0.398797
     polar coord.: r, theta, phi [deg] :     4.803663   54.735600   45.000000

 ==============================================================================

 ==============================================================================
     atom number    2 relative position :    0.2496   0.2496  -0.0012
     charge :    10.252104  (integrated on a sphere of radius 0.106)
     magnetization :         -0.000007   -0.000007   -0.000007
     magnetization/charge:   -0.000001   -0.000001   -0.000001
     polar coord.: r, theta, phi [deg] :     0.000012  125.264400 -135.000000

 ==============================================================================

 ==============================================================================
     atom number    3 relative position :    0.2510   0.0000   0.2500
     charge :    10.251791  (integrated on a sphere of radius 0.106)
     magnetization :         -0.000004   -0.000004   -0.000004
     magnetization/charge:   -0.000000   -0.000000   -0.000000
     polar coord.: r, theta, phi [deg] :     0.000007  125.264400 -135.000000

 ==============================================================================

 ==============================================================================
     atom number    4 relative position :   -0.0000   0.2510   0.2500
     charge :    10.251821  (integrated on a sphere of radius 0.106)
     magnetization :         -0.000003   -0.000003   -0.000003
     magnetization/charge:   -0.000000   -0.000000   -0.000000
     polar coord.: r, theta, phi [deg] :     0.000005  125.264400 -135.000000

 ==============================================================================

 ==============================================================================
     atom number    5 relative position :   -0.0000  -0.0000   0.4988
     charge :     6.940532  (integrated on a sphere of radius 0.100)
     magnetization :         -2.767986   -2.767986   -2.767987
     magnetization/charge:   -0.398815   -0.398815   -0.398815
     polar coord.: r, theta, phi [deg] :     4.794292  125.264400 -135.000000

 ==============================================================================

 ==============================================================================
     atom number    6 relative position :    0.2496   0.2496   0.5012
     charge :    10.252096  (integrated on a sphere of radius 0.106)
     magnetization :          0.000007    0.000007    0.000007
     magnetization/charge:    0.000001    0.000001    0.000001
     polar coord.: r, theta, phi [deg] :     0.000013   54.735600   45.000000

 ==============================================================================

 ==============================================================================
     atom number    7 relative position :    0.2469   0.0000   0.7500
     charge :    10.255348  (integrated on a sphere of radius 0.106)
     magnetization :          0.000004    0.000004    0.000004
     magnetization/charge:    0.000000    0.000000    0.000000
     polar coord.: r, theta, phi [deg] :     0.000007   54.735600   45.000000

 ==============================================================================

 ==============================================================================
     atom number    8 relative position :   -0.0000   0.2469   0.7500
     charge :    10.255358  (integrated on a sphere of radius 0.106)
     magnetization :          0.000003    0.000003    0.000003
     magnetization/charge:    0.000000    0.000000    0.000000
     polar coord.: r, theta, phi [deg] :     0.000006   54.735600   45.000000

 ==============================================================================

 ==============================================================================
     atom number    9 relative position :   -0.0000   0.5000  -0.0009
     charge :     6.940630  (integrated on a sphere of radius 0.100)
     magnetization :         -2.767964   -2.767964   -2.767966
     magnetization/charge:   -0.398806   -0.398806   -0.398806
     polar coord.: r, theta, phi [deg] :     4.794256  125.264400 -135.000000

 ==============================================================================

 ==============================================================================
     atom number   10 relative position :    0.2496   0.7504  -0.0012
     charge :    10.252103  (integrated on a sphere of radius 0.106)
     magnetization :         -0.000007   -0.000007   -0.000007
     magnetization/charge:   -0.000001   -0.000001   -0.000001
     polar coord.: r, theta, phi [deg] :     0.000012  125.264400 -135.000000

 ==============================================================================

 ==============================================================================
     atom number   11 relative position :    0.2497   0.5000   0.2500
     charge :    10.247648  (integrated on a sphere of radius 0.106)
     magnetization :          0.000015    0.000015    0.000015
     magnetization/charge:    0.000001    0.000001    0.000001
     polar coord.: r, theta, phi [deg] :     0.000026   54.735600   45.000000

 ==============================================================================

 ==============================================================================
     atom number   12 relative position :    0.0000   0.7490   0.2500
     charge :    10.251824  (integrated on a sphere of radius 0.106)
     magnetization :         -0.000003   -0.000003   -0.000003
     magnetization/charge:   -0.000000   -0.000000   -0.000000
     polar coord.: r, theta, phi [deg] :     0.000005  125.264400 -135.000000

 ==============================================================================

 ==============================================================================
     atom number   13 relative position :   -0.0000   0.5000   0.5009
     charge :     6.954540  (integrated on a sphere of radius 0.100)
     magnetization :          2.773399    2.773399    2.773400
     magnetization/charge:    0.398790    0.398790    0.398790
     polar coord.: r, theta, phi [deg] :     4.803668   54.735600   45.000000

 ==============================================================================

 ==============================================================================
     atom number   14 relative position :    0.2496   0.7504   0.5012
     charge :    10.252094  (integrated on a sphere of radius 0.106)
     magnetization :          0.000007    0.000007    0.000007
     magnetization/charge:    0.000001    0.000001    0.000001
     polar coord.: r, theta, phi [deg] :     0.000013   54.735600   45.000000

 ==============================================================================

 ==============================================================================
     atom number   15 relative position :    0.2422   0.5000   0.7500
     charge :    10.254439  (integrated on a sphere of radius 0.106)
     magnetization :         -0.000015   -0.000015   -0.000015
     magnetization/charge:   -0.000001   -0.000001   -0.000001
     polar coord.: r, theta, phi [deg] :     0.000026  125.264400 -135.000000

 ==============================================================================

 ==============================================================================
     atom number   16 relative position :    0.0000   0.7531   0.7500
     charge :    10.255356  (integrated on a sphere of radius 0.106)
     magnetization :          0.000003    0.000003    0.000003
     magnetization/charge:    0.000000    0.000000    0.000000
     polar coord.: r, theta, phi [deg] :     0.000005   54.735600   45.000000

 ==============================================================================

 ==============================================================================
     atom number   17 relative position :    0.5000  -0.0000  -0.0009
     charge :     6.940576  (integrated on a sphere of radius 0.100)
     magnetization :         -2.767964   -2.767964   -2.767965
     magnetization/charge:   -0.398809   -0.398809   -0.398809
     polar coord.: r, theta, phi [deg] :     4.794254  125.264400 -135.000000

 ==============================================================================

 ==============================================================================
     atom number   18 relative position :    0.7504   0.2496  -0.0012
     charge :    10.252098  (integrated on a sphere of radius 0.106)
     magnetization :         -0.000007   -0.000007   -0.000007
     magnetization/charge:   -0.000001   -0.000001   -0.000001
     polar coord.: r, theta, phi [deg] :     0.000013  125.264400 -135.000000

 ==============================================================================

 ==============================================================================
     atom number   19 relative position :    0.7490  -0.0000   0.2500
     charge :    10.251792  (integrated on a sphere of radius 0.106)
     magnetization :         -0.000004   -0.000004   -0.000004
     magnetization/charge:   -0.000000   -0.000000   -0.000000
     polar coord.: r, theta, phi [deg] :     0.000007  125.264400 -135.000000

 ==============================================================================

 ==============================================================================
     atom number   20 relative position :    0.5000   0.2497   0.2500
     charge :    10.247605  (integrated on a sphere of radius 0.106)
     magnetization :          0.000014    0.000014    0.000014
     magnetization/charge:    0.000001    0.000001    0.000001
     polar coord.: r, theta, phi [deg] :     0.000024   54.735600   45.000000

 ==============================================================================

 ==============================================================================
     atom number   21 relative position :    0.5000   0.0000   0.5009
     charge :     6.954519  (integrated on a sphere of radius 0.100)
     magnetization :          2.773397    2.773397    2.773398
     magnetization/charge:    0.398791    0.398791    0.398791
     polar coord.: r, theta, phi [deg] :     4.803665   54.735600   45.000000

 ==============================================================================

 ==============================================================================
     atom number   22 relative position :    0.7504   0.2496   0.5012
     charge :    10.252092  (integrated on a sphere of radius 0.106)
     magnetization :          0.000008    0.000008    0.000008
     magnetization/charge:    0.000001    0.000001    0.000001
     polar coord.: r, theta, phi [deg] :     0.000013   54.735600   45.000000

 ==============================================================================

 ==============================================================================
     atom number   23 relative position :    0.7531  -0.0000   0.7500
     charge :    10.255341  (integrated on a sphere of radius 0.106)
     magnetization :          0.000004    0.000004    0.000004
     magnetization/charge:    0.000000    0.000000    0.000000
     polar coord.: r, theta, phi [deg] :     0.000007   54.735600   45.000000

 ==============================================================================

 ==============================================================================
     atom number   24 relative position :    0.5000   0.2422   0.7500
     charge :    10.254438  (integrated on a sphere of radius 0.106)
     magnetization :         -0.000016   -0.000016   -0.000016
     magnetization/charge:   -0.000002   -0.000002   -0.000002
     polar coord.: r, theta, phi [deg] :     0.000027  125.264400 -135.000000

 ==============================================================================

 ==============================================================================
     atom number   25 relative position :    0.5000   0.5000  -0.0065
     charge :     6.950211  (integrated on a sphere of radius 0.100)
     magnetization :          2.773470    2.773470    2.773471
     magnetization/charge:    0.399048    0.399048    0.399048
     polar coord.: r, theta, phi [deg] :     4.803791   54.735600   45.000000

 ==============================================================================

 ==============================================================================
     atom number   26 relative position :    0.7504   0.7504  -0.0012
     charge :    10.252101  (integrated on a sphere of radius 0.106)
     magnetization :         -0.000007   -0.000007   -0.000007
     magnetization/charge:   -0.000001   -0.000001   -0.000001
     polar coord.: r, theta, phi [deg] :     0.000013  125.264400 -135.000000

 ==============================================================================

 ==============================================================================
     atom number   27 relative position :    0.7503   0.5000   0.2500
     charge :    10.247651  (integrated on a sphere of radius 0.106)
     magnetization :          0.000015    0.000015    0.000015
     magnetization/charge:    0.000001    0.000001    0.000001
     polar coord.: r, theta, phi [deg] :     0.000026   54.735600   45.000000

 ==============================================================================

 ==============================================================================
     atom number   28 relative position :    0.5000   0.7503   0.2500
     charge :    10.247608  (integrated on a sphere of radius 0.106)
     magnetization :          0.000014    0.000014    0.000014
     magnetization/charge:    0.000001    0.000001    0.000001
     polar coord.: r, theta, phi [deg] :     0.000025   54.735600   45.000000

 ==============================================================================

 ==============================================================================
     atom number   29 relative position :    0.5000   0.5000   0.5067
     charge :     6.936307  (integrated on a sphere of radius 0.100)
     magnetization :         -2.768043   -2.768043   -2.768044
     magnetization/charge:   -0.399066   -0.399066   -0.399066
     polar coord.: r, theta, phi [deg] :     4.794392  125.264400 -135.000000

 ==============================================================================

 ==============================================================================
     atom number   30 relative position :    0.7504   0.7504   0.5012
     charge :    10.252094  (integrated on a sphere of radius 0.106)
     magnetization :          0.000008    0.000008    0.000008
     magnetization/charge:    0.000001    0.000001    0.000001
     polar coord.: r, theta, phi [deg] :     0.000013   54.735600   45.000000

 ==============================================================================

 ==============================================================================
     atom number   31 relative position :    0.7578   0.5000   0.7500
     charge :    10.254434  (integrated on a sphere of radius 0.106)
     magnetization :         -0.000015   -0.000015   -0.000015
     magnetization/charge:   -0.000001   -0.000001   -0.000001
     polar coord.: r, theta, phi [deg] :     0.000026  125.264400 -135.000000

 ==============================================================================

 ==============================================================================
     atom number   32 relative position :    0.5000   0.7578   0.7500
     charge :    10.254436  (integrated on a sphere of radius 0.106)
     magnetization :         -0.000016   -0.000016   -0.000016
     magnetization/charge:   -0.000002   -0.000002   -0.000002
     polar coord.: r, theta, phi [deg] :     0.000027  125.264400 -135.000000

 ==============================================================================

 ==============================================================================
     atom number   33 relative position :    0.5000   0.5000   0.7499
     charge :     0.476390  (integrated on a sphere of radius 0.100)
     magnetization :         -0.000347   -0.000347   -0.000347
     magnetization/charge:   -0.000729   -0.000729   -0.000729
     polar coord.: r, theta, phi [deg] :     0.000601  125.264400 -135.000000

 ==============================================================================
     Starting wfcs are  946 randomized atomic wfcs
     Checking if some PAW data can be deallocated... 
       PAW data deallocated on   28 nodes for type:  1
       PAW data deallocated on   28 nodes for type:  2

     total cpu time spent up to now is       48.6 secs

     per-process dynamical memory:   263.6 Mb

     Self-consistent Calculation

     iteration #  1     ecut=    50.00 Ry     beta= 0.05
     CG style diagonalization

---- Real-time Memory Report at c_bands before calling an iterative solver
           358 MiB given to the printing process from OS
           257 MiB allocation reported by mallinfo(arena+hblkhd)
        693382 MiB available memory on the node where the printing process lives
------------------
     ethr =  1.00E-02,  avg # of iterations =  2.4

     total cpu time spent up to now is       74.9 secs

     total energy              =   -6993.73411935 Ry
     estimated scf accuracy    <      49.38715156 Ry

     total magnetization       =    -1.33    -0.70    -0.15 Bohr mag/cell
     absolute magnetization    =    19.28 Bohr mag/cell

     iteration #  2     ecut=    50.00 Ry     beta= 0.05
     CG style diagonalization

---- Real-time Memory Report at c_bands before calling an iterative solver
           464 MiB given to the printing process from OS
           289 MiB allocation reported by mallinfo(arena+hblkhd)
        688974 MiB available memory on the node where the printing process lives
------------------
     ethr =  1.00E-02,  avg # of iterations =  3.1

     total cpu time spent up to now is       99.4 secs

     total energy              =   -7052.54646426 Ry
     estimated scf accuracy    <      24.57693635 Ry

     total magnetization       =    -0.83    -0.62     0.25 Bohr mag/cell
     absolute magnetization    =    20.21 Bohr mag/cell

     iteration #  3     ecut=    50.00 Ry     beta= 0.05
     CG style diagonalization

---- Real-time Memory Report at c_bands before calling an iterative solver
           467 MiB given to the printing process from OS
           289 MiB allocation reported by mallinfo(arena+hblkhd)
        682045 MiB available memory on the node where the printing process lives
------------------
     ethr =  6.02E-03,  avg # of iterations =  3.1

     total cpu time spent up to now is      123.9 secs

     total energy              =   -7074.33852442 Ry
     estimated scf accuracy    <       5.18750621 Ry

     total magnetization       =    -0.70    -0.51     0.47 Bohr mag/cell
     absolute magnetization    =    14.10 Bohr mag/cell

     iteration #  4     ecut=    50.00 Ry     beta= 0.05
     CG style diagonalization

---- Real-time Memory Report at c_bands before calling an iterative solver
           467 MiB given to the printing process from OS
           289 MiB allocation reported by mallinfo(arena+hblkhd)
        676312 MiB available memory on the node where the printing process lives
------------------
     c_bands:  2 eigenvalues not converged
     ethr =  1.27E-03,  avg # of iterations =  4.1

     total cpu time spent up to now is      158.7 secs

     total energy              =   -7089.31969719 Ry
     estimated scf accuracy    <       3.67575991 Ry

     total magnetization       =    -0.43    -0.12     0.50 Bohr mag/cell
     absolute magnetization    =    12.21 Bohr mag/cell

     iteration #  5     ecut=    50.00 Ry     beta= 0.05
     CG style diagonalization

---- Real-time Memory Report at c_bands before calling an iterative solver
           469 MiB given to the printing process from OS
           289 MiB allocation reported by mallinfo(arena+hblkhd)
        677014 MiB available memory on the node where the printing process lives
------------------
     ethr =  9.01E-04,  avg # of iterations =  3.2

     total cpu time spent up to now is      184.0 secs

     total energy              =   -7135.32310142 Ry
     estimated scf accuracy    <       3.09815196 Ry

     total magnetization       =    -0.43    -0.02     0.58 Bohr mag/cell
     absolute magnetization    =    12.38 Bohr mag/cell

     iteration #  6     ecut=    50.00 Ry     beta= 0.05
     CG style diagonalization

---- Real-time Memory Report at c_bands before calling an iterative solver
           469 MiB given to the printing process from OS
           289 MiB allocation reported by mallinfo(arena+hblkhd)
        676203 MiB available memory on the node where the printing process lives
------------------
     ethr =  7.59E-04,  avg # of iterations =  3.3

     total cpu time spent up to now is      209.8 secs

     total energy              =   -7155.36617228 Ry
     estimated scf accuracy    <       2.64691176 Ry

     total magnetization       =    -0.34    -0.57     0.65 Bohr mag/cell
     absolute magnetization    =    11.72 Bohr mag/cell

     iteration #  7     ecut=    50.00 Ry     beta= 0.05
     CG style diagonalization

---- Real-time Memory Report at c_bands before calling an iterative solver
           469 MiB given to the printing process from OS
           289 MiB allocation reported by mallinfo(arena+hblkhd)
        676631 MiB available memory on the node where the printing process lives
------------------
     ethr =  6.49E-04,  avg # of iterations =  3.1

     total cpu time spent up to now is      234.4 secs

     total energy              =   -7225.14353119 Ry
     estimated scf accuracy    <       2.22740164 Ry

     total magnetization       =    -0.37    -0.64     0.90 Bohr mag/cell
     absolute magnetization    =    11.88 Bohr mag/cell

     iteration #  8     ecut=    50.00 Ry     beta= 0.05
     CG style diagonalization

---- Real-time Memory Report at c_bands before calling an iterative solver
           469 MiB given to the printing process from OS
           289 MiB allocation reported by mallinfo(arena+hblkhd)
        681693 MiB available memory on the node where the printing process lives
------------------
     c_bands:  1 eigenvalues not converged
     ethr =  5.46E-04,  avg # of iterations =  5.0

     total cpu time spent up to now is      277.4 secs

     total energy              =   -7246.64414650 Ry
     estimated scf accuracy    <       6.23847427 Ry

     total magnetization       =    -0.59     0.49     1.56 Bohr mag/cell
     absolute magnetization    =    12.78 Bohr mag/cell

     iteration #  9     ecut=    50.00 Ry     beta= 0.05
     CG style diagonalization

---- Real-time Memory Report at c_bands before calling an iterative solver
           469 MiB given to the printing process from OS
           289 MiB allocation reported by mallinfo(arena+hblkhd)
        688332 MiB available memory on the node where the printing process lives
------------------
     ethr =  5.46E-04,  avg # of iterations =  3.2

     total cpu time spent up to now is      302.7 secs

     total energy              =   -7246.57084690 Ry
     estimated scf accuracy    <       4.74696673 Ry

     total magnetization       =    -0.69     1.14     3.16 Bohr mag/cell
     absolute magnetization    =    16.13 Bohr mag/cell

     iteration # 10     ecut=    50.00 Ry     beta= 0.05
     CG style diagonalization

---- Real-time Memory Report at c_bands before calling an iterative solver
           469 MiB given to the printing process from OS
           289 MiB allocation reported by mallinfo(arena+hblkhd)
        687910 MiB available memory on the node where the printing process lives
------------------
     ethr =  5.46E-04,  avg # of iterations =  3.1

     total cpu time spent up to now is      326.6 secs

     total energy              =   -7251.24414994 Ry
     estimated scf accuracy    <       4.42412601 Ry

     total magnetization       =    -0.70     1.09     3.16 Bohr mag/cell
     absolute magnetization    =    15.95 Bohr mag/cell

     iteration # 11     ecut=    50.00 Ry     beta= 0.05
     CG style diagonalization

---- Real-time Memory Report at c_bands before calling an iterative solver
           470 MiB given to the printing process from OS
           289 MiB allocation reported by mallinfo(arena+hblkhd)
        687716 MiB available memory on the node where the printing process lives
------------------
     ethr =  5.46E-04,  avg # of iterations =  3.0

     total cpu time spent up to now is      350.0 secs

     total energy              =   -7252.88994614 Ry
     estimated scf accuracy    <       7.05646348 Ry

     total magnetization       =    -0.85     1.17     3.49 Bohr mag/cell
     absolute magnetization    =    17.38 Bohr mag/cell

     iteration # 12     ecut=    50.00 Ry     beta= 0.05
     CG style diagonalization

---- Real-time Memory Report at c_bands before calling an iterative solver
           470 MiB given to the printing process from OS
           289 MiB allocation reported by mallinfo(arena+hblkhd)
        679731 MiB available memory on the node where the printing process lives
------------------
     ethr =  5.46E-04,  avg # of iterations =  3.0

     total cpu time spent up to now is      374.0 secs

     total energy              =   -7252.92956846 Ry
     estimated scf accuracy    <       6.46994450 Ry

     total magnetization       =    -0.71     0.97     3.55 Bohr mag/cell
     absolute magnetization    =    17.54 Bohr mag/cell

     iteration # 13     ecut=    50.00 Ry     beta= 0.05
     CG style diagonalization

---- Real-time Memory Report at c_bands before calling an iterative solver
           470 MiB given to the printing process from OS
           289 MiB allocation reported by mallinfo(arena+hblkhd)
        674563 MiB available memory on the node where the printing process lives
------------------
     ethr =  5.46E-04,  avg # of iterations =  3.0

     total cpu time spent up to now is      397.6 secs

     total energy              =   -7273.33366186 Ry
     estimated scf accuracy    <       6.61105008 Ry

     total magnetization       =    -0.71     0.97     3.56 Bohr mag/cell
     absolute magnetization    =    17.55 Bohr mag/cell

     iteration # 14     ecut=    50.00 Ry     beta= 0.05
     CG style diagonalization

---- Real-time Memory Report at c_bands before calling an iterative solver
           470 MiB given to the printing process from OS
           289 MiB allocation reported by mallinfo(arena+hblkhd)
        676934 MiB available memory on the node where the printing process lives
------------------
     ethr =  5.46E-04,  avg # of iterations =  3.1

     total cpu time spent up to now is      422.2 secs

     total energy              =   -7278.37309643 Ry
     estimated scf accuracy    <       8.30689908 Ry

     total magnetization       =    -0.30     0.95     3.96 Bohr mag/cell
     absolute magnetization    =    17.96 Bohr mag/cell

     iteration # 15     ecut=    50.00 Ry     beta= 0.05
     CG style diagonalization

---- Real-time Memory Report at c_bands before calling an iterative solver
           470 MiB given to the printing process from OS
           289 MiB allocation reported by mallinfo(arena+hblkhd)
        675238 MiB available memory on the node where the printing process lives
------------------
     ethr =  5.46E-04,  avg # of iterations =  3.0

     total cpu time spent up to now is      446.4 secs

     total energy              =   -7298.01037291 Ry
     estimated scf accuracy    <       7.77114179 Ry

     total magnetization       =    -0.44     0.65     3.74 Bohr mag/cell
     absolute magnetization    =    18.19 Bohr mag/cell

     iteration # 16     ecut=    50.00 Ry     beta= 0.05
     CG style diagonalization

---- Real-time Memory Report at c_bands before calling an iterative solver
           470 MiB given to the printing process from OS
           289 MiB allocation reported by mallinfo(arena+hblkhd)
        674610 MiB available memory on the node where the printing process lives
------------------
     ethr =  5.46E-04,  avg # of iterations =  3.3

     total cpu time spent up to now is      472.4 secs

     total energy              =   -7299.03665855 Ry
     estimated scf accuracy    <       2.64799778 Ry

     total magnetization       =    -0.61     0.47     2.99 Bohr mag/cell
     absolute magnetization    =    13.97 Bohr mag/cell

     iteration # 17     ecut=    50.00 Ry     beta= 0.05
     CG style diagonalization

---- Real-time Memory Report at c_bands before calling an iterative solver
           470 MiB given to the printing process from OS
           289 MiB allocation reported by mallinfo(arena+hblkhd)
        677624 MiB available memory on the node where the printing process lives
------------------
     ethr =  5.46E-04,  avg # of iterations =  3.0

     total cpu time spent up to now is      496.2 secs

     total energy              =   -7303.16217461 Ry
     estimated scf accuracy    <       3.17159898 Ry

     total magnetization       =     0.86     0.63     2.69 Bohr mag/cell
     absolute magnetization    =    12.57 Bohr mag/cell

     iteration # 18     ecut=    50.00 Ry     beta= 0.05
     CG style diagonalization

---- Real-time Memory Report at c_bands before calling an iterative solver
           470 MiB given to the printing process from OS
           289 MiB allocation reported by mallinfo(arena+hblkhd)
        681703 MiB available memory on the node where the printing process lives
------------------
     ethr =  5.46E-04,  avg # of iterations =  3.0

     total cpu time spent up to now is      519.4 secs

     total energy              =   -7304.00109422 Ry
     estimated scf accuracy    <       2.09540166 Ry

     total magnetization       =    -0.31     0.28     2.35 Bohr mag/cell
     absolute magnetization    =    12.95 Bohr mag/cell

     iteration # 19     ecut=    50.00 Ry     beta= 0.05
     CG style diagonalization

---- Real-time Memory Report at c_bands before calling an iterative solver
           470 MiB given to the printing process from OS
           289 MiB allocation reported by mallinfo(arena+hblkhd)
        683216 MiB available memory on the node where the printing process lives
------------------
     ethr =  5.14E-04,  avg # of iterations =  3.0

     total cpu time spent up to now is      542.6 secs

     total energy              =   -7305.81121066 Ry
     estimated scf accuracy    <       2.21729134 Ry

     total magnetization       =    -0.26     0.39     2.49 Bohr mag/cell
     absolute magnetization    =    13.26 Bohr mag/cell

     iteration # 20     ecut=    50.00 Ry     beta= 0.05
     CG style diagonalization

---- Real-time Memory Report at c_bands before calling an iterative solver
           470 MiB given to the printing process from OS
           289 MiB allocation reported by mallinfo(arena+hblkhd)
        686927 MiB available memory on the node where the printing process lives
------------------
     ethr =  5.14E-04,  avg # of iterations =  3.0

     total cpu time spent up to now is      565.7 secs

     total energy              =   -7307.80372531 Ry
     estimated scf accuracy    <       1.31376086 Ry

     total magnetization       =    -0.74    -0.50     1.34 Bohr mag/cell
     absolute magnetization    =    10.40 Bohr mag/cell

     iteration # 21     ecut=    50.00 Ry     beta= 0.05
     CG style diagonalization

---- Real-time Memory Report at c_bands before calling an iterative solver
           470 MiB given to the printing process from OS
           289 MiB allocation reported by mallinfo(arena+hblkhd)
        688675 MiB available memory on the node where the printing process lives
------------------
     ethr =  3.22E-04,  avg # of iterations =  3.0

     total cpu time spent up to now is      588.9 secs

     total energy              =   -7312.51319576 Ry
     estimated scf accuracy    <       0.87802932 Ry

     total magnetization       =    -0.78    -0.33     1.44 Bohr mag/cell
     absolute magnetization    =    10.43 Bohr mag/cell

     iteration # 22     ecut=    50.00 Ry     beta= 0.05
     CG style diagonalization

---- Real-time Memory Report at c_bands before calling an iterative solver
           470 MiB given to the printing process from OS
           289 MiB allocation reported by mallinfo(arena+hblkhd)
        688141 MiB available memory on the node where the printing process lives
------------------
     c_bands:  2 eigenvalues not converged
     ethr =  2.15E-04,  avg # of iterations =  3.1

     total cpu time spent up to now is      613.6 secs

     total energy              =   -7312.61212617 Ry
     estimated scf accuracy    <       0.49809592 Ry

     total magnetization       =    -0.39     0.04     1.80 Bohr mag/cell
     absolute magnetization    =    11.10 Bohr mag/cell

     iteration # 23     ecut=    50.00 Ry     beta= 0.05
     CG style diagonalization

---- Real-time Memory Report at c_bands before calling an iterative solver
           472 MiB given to the printing process from OS
           289 MiB allocation reported by mallinfo(arena+hblkhd)
        686899 MiB available memory on the node where the printing process lives
------------------
     ethr =  1.22E-04,  avg # of iterations =  7.8

     total cpu time spent up to now is      675.2 secs

     total energy              =   -7311.36378583 Ry
     estimated scf accuracy    <       0.80096821 Ry

     total magnetization       =     0.79     0.28     2.58 Bohr mag/cell
     absolute magnetization    =    12.23 Bohr mag/cell

     iteration # 24     ecut=    50.00 Ry     beta= 0.05
     CG style diagonalization

---- Real-time Memory Report at c_bands before calling an iterative solver
           472 MiB given to the printing process from OS
           289 MiB allocation reported by mallinfo(arena+hblkhd)
        687787 MiB available memory on the node where the printing process lives
------------------
     ethr =  1.22E-04,  avg # of iterations =  3.0

     total cpu time spent up to now is      698.8 secs

     total energy              =   -7312.80359518 Ry
     estimated scf accuracy    <       0.54616982 Ry

     total magnetization       =     0.60     0.66     2.77 Bohr mag/cell
     absolute magnetization    =    12.06 Bohr mag/cell

     iteration # 25     ecut=    50.00 Ry     beta= 0.05
     CG style diagonalization

---- Real-time Memory Report at c_bands before calling an iterative solver
           472 MiB given to the printing process from OS
           289 MiB allocation reported by mallinfo(arena+hblkhd)
        689461 MiB available memory on the node where the printing process lives
------------------
     ethr =  1.22E-04,  avg # of iterations =  3.0

     total cpu time spent up to now is      722.1 secs

     total energy              =   -7308.16494159 Ry
     estimated scf accuracy    <       0.53285708 Ry

     total magnetization       =     0.45     0.63     2.68 Bohr mag/cell
     absolute magnetization    =    12.30 Bohr mag/cell

     iteration # 26     ecut=    50.00 Ry     beta= 0.05
     CG style diagonalization

---- Real-time Memory Report at c_bands before calling an iterative solver
           472 MiB given to the printing process from OS
           289 MiB allocation reported by mallinfo(arena+hblkhd)
        688577 MiB available memory on the node where the printing process lives
------------------
     ethr =  1.22E-04,  avg # of iterations =  3.0

     total cpu time spent up to now is      745.5 secs

     total energy              =   -7320.29131041 Ry
     estimated scf accuracy    <       0.36836004 Ry

     total magnetization       =     0.19     0.39     2.28 Bohr mag/cell
     absolute magnetization    =    10.59 Bohr mag/cell

     iteration # 27     ecut=    50.00 Ry     beta= 0.05
     CG style diagonalization

---- Real-time Memory Report at c_bands before calling an iterative solver
           472 MiB given to the printing process from OS
           289 MiB allocation reported by mallinfo(arena+hblkhd)
        689236 MiB available memory on the node where the printing process lives
------------------
     c_bands:  2 eigenvalues not converged
     ethr =  9.03E-05,  avg # of iterations =  3.6

     total cpu time spent up to now is      774.8 secs

     total energy              =   -7326.90078245 Ry
     estimated scf accuracy    <       0.38775289 Ry

     total magnetization       =     0.45     0.14     1.86 Bohr mag/cell
     absolute magnetization    =    10.69 Bohr mag/cell

     iteration # 28     ecut=    50.00 Ry     beta= 0.05
     CG style diagonalization

---- Real-time Memory Report at c_bands before calling an iterative solver
           472 MiB given to the printing process from OS
           289 MiB allocation reported by mallinfo(arena+hblkhd)
        688618 MiB available memory on the node where the printing process lives
------------------
     c_bands:  4 eigenvalues not converged
     ethr =  9.03E-05,  avg # of iterations =  4.1

     total cpu time spent up to now is      809.6 secs

     total energy              =   -7328.45026457 Ry
     estimated scf accuracy    <       0.89666917 Ry

     total magnetization       =     0.82     0.95     2.48 Bohr mag/cell
     absolute magnetization    =    11.36 Bohr mag/cell

     iteration # 29     ecut=    50.00 Ry     beta= 0.05
     CG style diagonalization

---- Real-time Memory Report at c_bands before calling an iterative solver
           472 MiB given to the printing process from OS
           289 MiB allocation reported by mallinfo(arena+hblkhd)
        687664 MiB available memory on the node where the printing process lives
------------------
     c_bands:  2 eigenvalues not converged
     ethr =  9.03E-05,  avg # of iterations =  3.4

     total cpu time spent up to now is      837.1 secs

     total energy              =   -7329.28990052 Ry
     estimated scf accuracy    <       0.44650474 Ry

     total magnetization       =     0.63     0.83     2.40 Bohr mag/cell
     absolute magnetization    =    10.79 Bohr mag/cell

     iteration # 30     ecut=    50.00 Ry     beta= 0.05
     CG style diagonalization

---- Real-time Memory Report at c_bands before calling an iterative solver
           472 MiB given to the printing process from OS
           289 MiB allocation reported by mallinfo(arena+hblkhd)
        687637 MiB available memory on the node where the printing process lives
------------------
     ethr =  9.03E-05,  avg # of iterations =  3.1

     total cpu time spent up to now is      862.3 secs

     total energy              =   -7333.95099694 Ry
     estimated scf accuracy    <       0.15849507 Ry

     total magnetization       =     0.28     0.23     1.85 Bohr mag/cell
     absolute magnetization    =    10.13 Bohr mag/cell

     iteration # 31     ecut=    50.00 Ry     beta= 0.05
     CG style diagonalization

---- Real-time Memory Report at c_bands before calling an iterative solver
           472 MiB given to the printing process from OS
           289 MiB allocation reported by mallinfo(arena+hblkhd)
        689686 MiB available memory on the node where the printing process lives
------------------
     c_bands:  4 eigenvalues not converged
     ethr =  3.88E-05,  avg # of iterations =  9.1

     total cpu time spent up to now is      937.9 secs

     total energy              =   -7334.12949351 Ry
     estimated scf accuracy    <       0.57896616 Ry

     total magnetization       =     0.82     0.04     0.75 Bohr mag/cell
     absolute magnetization    =     8.39 Bohr mag/cell

     iteration # 32     ecut=    50.00 Ry     beta= 0.05
     CG style diagonalization

---- Real-time Memory Report at c_bands before calling an iterative solver
           472 MiB given to the printing process from OS
           289 MiB allocation reported by mallinfo(arena+hblkhd)
        688988 MiB available memory on the node where the printing process lives
------------------
     c_bands:  1 eigenvalues not converged
     ethr =  3.88E-05,  avg # of iterations =  3.2

     total cpu time spent up to now is      963.4 secs

     total energy              =   -7333.14147681 Ry
     estimated scf accuracy    <       0.31633223 Ry

     total magnetization       =     1.03     0.10     1.02 Bohr mag/cell
     absolute magnetization    =     8.76 Bohr mag/cell

     iteration # 33     ecut=    50.00 Ry     beta= 0.05
     CG style diagonalization

---- Real-time Memory Report at c_bands before calling an iterative solver
           472 MiB given to the printing process from OS
           289 MiB allocation reported by mallinfo(arena+hblkhd)
        688657 MiB available memory on the node where the printing process lives
------------------
     ethr =  3.88E-05,  avg # of iterations =  3.1

     total cpu time spent up to now is      987.2 secs

     total energy              =   -7333.65739440 Ry
     estimated scf accuracy    <       0.19020531 Ry

     total magnetization       =     0.92    -0.05     1.13 Bohr mag/cell
     absolute magnetization    =     8.95 Bohr mag/cell

     iteration # 34     ecut=    50.00 Ry     beta= 0.05
     CG style diagonalization

---- Real-time Memory Report at c_bands before calling an iterative solver
           472 MiB given to the printing process from OS
           289 MiB allocation reported by mallinfo(arena+hblkhd)
        689131 MiB available memory on the node where the printing process lives
------------------
     ethr =  3.88E-05,  avg # of iterations =  3.0

     total cpu time spent up to now is     1010.5 secs

     total energy              =   -7333.95514645 Ry
     estimated scf accuracy    <       0.24406690 Ry

     total magnetization       =     1.08     0.05     1.10 Bohr mag/cell
     absolute magnetization    =     8.85 Bohr mag/cell

     iteration # 35     ecut=    50.00 Ry     beta= 0.05
     CG style diagonalization

---- Real-time Memory Report at c_bands before calling an iterative solver
           472 MiB given to the printing process from OS
           289 MiB allocation reported by mallinfo(arena+hblkhd)
        688255 MiB available memory on the node where the printing process lives
------------------
     ethr =  3.88E-05,  avg # of iterations =  3.0

     total cpu time spent up to now is     1033.7 secs

     total energy              =   -7334.78369179 Ry
     estimated scf accuracy    <       0.18121768 Ry

     total magnetization       =     1.09    -0.05     0.96 Bohr mag/cell
     absolute magnetization    =     8.82 Bohr mag/cell

     iteration # 36     ecut=    50.00 Ry     beta= 0.05
     CG style diagonalization

---- Real-time Memory Report at c_bands before calling an iterative solver
           472 MiB given to the printing process from OS
           289 MiB allocation reported by mallinfo(arena+hblkhd)
        688015 MiB available memory on the node where the printing process lives
------------------
     ethr =  3.88E-05,  avg # of iterations =  3.0

     total cpu time spent up to now is     1057.4 secs

     total energy              =   -7335.74580864 Ry
     estimated scf accuracy    <       0.17373340 Ry

     total magnetization       =     1.49     0.04     0.85 Bohr mag/cell
     absolute magnetization    =     9.20 Bohr mag/cell

     iteration # 37     ecut=    50.00 Ry     beta= 0.05
     CG style diagonalization

---- Real-time Memory Report at c_bands before calling an iterative solver
           472 MiB given to the printing process from OS
           289 MiB allocation reported by mallinfo(arena+hblkhd)
        688072 MiB available memory on the node where the printing process lives
------------------
     ethr =  3.88E-05,  avg # of iterations =  3.4

     total cpu time spent up to now is     1084.9 secs

     total energy              =   -7335.70781005 Ry
     estimated scf accuracy    <       0.21247560 Ry

     total magnetization       =     1.75    -0.09     0.23 Bohr mag/cell
     absolute magnetization    =     8.92 Bohr mag/cell

     iteration # 38     ecut=    50.00 Ry     beta= 0.05
     CG style diagonalization

---- Real-time Memory Report at c_bands before calling an iterative solver
           472 MiB given to the printing process from OS
           289 MiB allocation reported by mallinfo(arena+hblkhd)
        688088 MiB available memory on the node where the printing process lives
------------------
     ethr =  3.88E-05,  avg # of iterations =  3.1

     total cpu time spent up to now is     1109.4 secs

     total energy              =   -7335.38331902 Ry
     estimated scf accuracy    <       0.18620053 Ry

     total magnetization       =     1.95    -0.31     0.21 Bohr mag/cell
     absolute magnetization    =     9.30 Bohr mag/cell

     iteration # 39     ecut=    50.00 Ry     beta= 0.05
     CG style diagonalization

---- Real-time Memory Report at c_bands before calling an iterative solver
           472 MiB given to the printing process from OS
           289 MiB allocation reported by mallinfo(arena+hblkhd)
        688140 MiB available memory on the node where the printing process lives
------------------
     ethr =  3.88E-05,  avg # of iterations =  3.0

     total cpu time spent up to now is     1133.0 secs

     total energy              =   -7336.23952677 Ry
     estimated scf accuracy    <       0.15213928 Ry

     total magnetization       =     2.10     0.00     0.58 Bohr mag/cell
     absolute magnetization    =     9.93 Bohr mag/cell

     iteration # 40     ecut=    50.00 Ry     beta= 0.05
     CG style diagonalization

---- Real-time Memory Report at c_bands before calling an iterative solver
           472 MiB given to the printing process from OS
           289 MiB allocation reported by mallinfo(arena+hblkhd)
        688038 MiB available memory on the node where the printing process lives
------------------
     ethr =  3.73E-05,  avg # of iterations =  3.3

     total cpu time spent up to now is     1159.8 secs

     total energy              =   -7335.39908820 Ry
     estimated scf accuracy    <       0.69625677 Ry

     total magnetization       =     1.65    -0.81    -0.38 Bohr mag/cell
     absolute magnetization    =     8.60 Bohr mag/cell

     iteration # 41     ecut=    50.00 Ry     beta= 0.05
     CG style diagonalization

---- Real-time Memory Report at c_bands before calling an iterative solver
           472 MiB given to the printing process from OS
           289 MiB allocation reported by mallinfo(arena+hblkhd)
        689503 MiB available memory on the node where the printing process lives
------------------
     ethr =  3.73E-05,  avg # of iterations =  3.3

     total cpu time spent up to now is     1186.5 secs

     total energy              =   -7335.93559726 Ry
     estimated scf accuracy    <       0.14958095 Ry

     total magnetization       =     1.84    -0.16     0.61 Bohr mag/cell
     absolute magnetization    =    10.27 Bohr mag/cell

     iteration # 42     ecut=    50.00 Ry     beta= 0.05
     CG style diagonalization

---- Real-time Memory Report at c_bands before calling an iterative solver
           472 MiB given to the printing process from OS
           289 MiB allocation reported by mallinfo(arena+hblkhd)
        689599 MiB available memory on the node where the printing process lives
------------------
     ethr =  3.67E-05,  avg # of iterations =  3.1

     total cpu time spent up to now is     1210.6 secs

     total energy              =   -7336.10609002 Ry
     estimated scf accuracy    <       0.12554924 Ry

     total magnetization       =     1.82    -0.23     0.37 Bohr mag/cell
     absolute magnetization    =     9.78 Bohr mag/cell

     iteration # 43     ecut=    50.00 Ry     beta= 0.05
     CG style diagonalization

---- Real-time Memory Report at c_bands before calling an iterative solver
           472 MiB given to the printing process from OS
           289 MiB allocation reported by mallinfo(arena+hblkhd)
        688153 MiB available memory on the node where the printing process lives
------------------
     ethr =  3.08E-05,  avg # of iterations =  3.0

     total cpu time spent up to now is     1234.0 secs

     total energy              =   -7336.23101495 Ry
     estimated scf accuracy    <       0.07607225 Ry

     total magnetization       =     1.87    -0.25     0.16 Bohr mag/cell
     absolute magnetization    =     9.66 Bohr mag/cell

     iteration # 44     ecut=    50.00 Ry     beta= 0.05
     CG style diagonalization

---- Real-time Memory Report at c_bands before calling an iterative solver
           472 MiB given to the printing process from OS
           289 MiB allocation reported by mallinfo(arena+hblkhd)
        688004 MiB available memory on the node where the printing process lives
------------------
     ethr =  1.86E-05,  avg # of iterations =  3.1

     total cpu time spent up to now is     1258.5 secs

     total energy              =   -7336.33468298 Ry
     estimated scf accuracy    <       0.09007820 Ry

     total magnetization       =     1.92    -0.24     0.05 Bohr mag/cell
     absolute magnetization    =     9.63 Bohr mag/cell

     iteration # 45     ecut=    50.00 Ry     beta= 0.05
     CG style diagonalization

---- Real-time Memory Report at c_bands before calling an iterative solver
           472 MiB given to the printing process from OS
           289 MiB allocation reported by mallinfo(arena+hblkhd)
        688111 MiB available memory on the node where the printing process lives
------------------
     ethr =  1.86E-05,  avg # of iterations =  3.1

     total cpu time spent up to now is     1283.0 secs

     total energy              =   -7336.23258671 Ry
     estimated scf accuracy    <       0.10450615 Ry

     total magnetization       =     1.86    -0.26    -0.08 Bohr mag/cell
     absolute magnetization    =     9.39 Bohr mag/cell

     iteration # 46     ecut=    50.00 Ry     beta= 0.05
     CG style diagonalization

---- Real-time Memory Report at c_bands before calling an iterative solver
           472 MiB given to the printing process from OS
           289 MiB allocation reported by mallinfo(arena+hblkhd)
        688861 MiB available memory on the node where the printing process lives
------------------
     ethr =  1.86E-05,  avg # of iterations =  3.0

     total cpu time spent up to now is     1306.5 secs

     total energy              =   -7336.21526927 Ry
     estimated scf accuracy    <       0.08839810 Ry

     total magnetization       =     1.85    -0.27    -0.02 Bohr mag/cell
     absolute magnetization    =     9.74 Bohr mag/cell

     iteration # 47     ecut=    50.00 Ry     beta= 0.05
     CG style diagonalization

---- Real-time Memory Report at c_bands before calling an iterative solver
           472 MiB given to the printing process from OS
           289 MiB allocation reported by mallinfo(arena+hblkhd)
        688905 MiB available memory on the node where the printing process lives
------------------
     ethr =  1.86E-05,  avg # of iterations =  3.0

     total cpu time spent up to now is     1329.7 secs

     total energy              =   -7336.25423408 Ry
     estimated scf accuracy    <       0.05144470 Ry

     total magnetization       =     1.98    -0.25     0.02 Bohr mag/cell
     absolute magnetization    =     9.92 Bohr mag/cell

     iteration # 48     ecut=    50.00 Ry     beta= 0.05
     CG style diagonalization

---- Real-time Memory Report at c_bands before calling an iterative solver
           472 MiB given to the printing process from OS
           289 MiB allocation reported by mallinfo(arena+hblkhd)
        688799 MiB available memory on the node where the printing process lives
------------------
     ethr =  1.26E-05,  avg # of iterations =  3.1

     total cpu time spent up to now is     1353.8 secs

     total energy              =   -7336.31499954 Ry
     estimated scf accuracy    <       0.05218252 Ry

     total magnetization       =     1.98    -0.22    -0.02 Bohr mag/cell
     absolute magnetization    =     9.94 Bohr mag/cell

     iteration # 49     ecut=    50.00 Ry     beta= 0.05
     CG style diagonalization

---- Real-time Memory Report at c_bands before calling an iterative solver
           472 MiB given to the printing process from OS
           289 MiB allocation reported by mallinfo(arena+hblkhd)
        688754 MiB available memory on the node where the printing process lives
------------------
     ethr =  1.26E-05,  avg # of iterations =  3.0

     total cpu time spent up to now is     1377.0 secs

     total energy              =   -7336.21645116 Ry
     estimated scf accuracy    <       0.05890313 Ry

     total magnetization       =     1.93    -0.20    -0.09 Bohr mag/cell
     absolute magnetization    =     9.89 Bohr mag/cell

     iteration # 50     ecut=    50.00 Ry     beta= 0.05
     CG style diagonalization

---- Real-time Memory Report at c_bands before calling an iterative solver
           472 MiB given to the printing process from OS
           289 MiB allocation reported by mallinfo(arena+hblkhd)
        688710 MiB available memory on the node where the printing process lives
------------------
     ethr =  1.26E-05,  avg # of iterations =  3.0

     total cpu time spent up to now is     1400.2 secs

     total energy              =   -7336.18402021 Ry
     estimated scf accuracy    <       0.05396066 Ry

     total magnetization       =     2.00    -0.21     0.03 Bohr mag/cell
     absolute magnetization    =     9.98 Bohr mag/cell

     iteration # 51     ecut=    50.00 Ry     beta= 0.05
     CG style diagonalization

---- Real-time Memory Report at c_bands before calling an iterative solver
           472 MiB given to the printing process from OS
           289 MiB allocation reported by mallinfo(arena+hblkhd)
        688726 MiB available memory on the node where the printing process lives
------------------
     ethr =  1.26E-05,  avg # of iterations =  3.0

     total cpu time spent up to now is     1423.5 secs

     total energy              =   -7336.13105307 Ry
     estimated scf accuracy    <       0.06067301 Ry

     total magnetization       =     1.90    -0.24     0.02 Bohr mag/cell
     absolute magnetization    =     9.98 Bohr mag/cell

     iteration # 52     ecut=    50.00 Ry     beta= 0.05
     CG style diagonalization

---- Real-time Memory Report at c_bands before calling an iterative solver
           472 MiB given to the printing process from OS
           289 MiB allocation reported by mallinfo(arena+hblkhd)
        689424 MiB available memory on the node where the printing process lives
------------------
     ethr =  1.26E-05,  avg # of iterations =  3.0

     total cpu time spent up to now is     1447.1 secs

     total energy              =   -7336.17528579 Ry
     estimated scf accuracy    <       0.07761095 Ry

     total magnetization       =     1.77    -0.24     0.06 Bohr mag/cell
     absolute magnetization    =    10.02 Bohr mag/cell

     iteration # 53     ecut=    50.00 Ry     beta= 0.05
     CG style diagonalization

---- Real-time Memory Report at c_bands before calling an iterative solver
           472 MiB given to the printing process from OS
           289 MiB allocation reported by mallinfo(arena+hblkhd)
        687970 MiB available memory on the node where the printing process lives
------------------
     ethr =  1.26E-05,  avg # of iterations =  3.0

     total cpu time spent up to now is     1470.5 secs

     total energy              =   -7336.32549529 Ry
     estimated scf accuracy    <       0.04931469 Ry

     total magnetization       =     1.96    -0.21     0.12 Bohr mag/cell
     absolute magnetization    =    10.26 Bohr mag/cell

     iteration # 54     ecut=    50.00 Ry     beta= 0.05
     CG style diagonalization

---- Real-time Memory Report at c_bands before calling an iterative solver
           472 MiB given to the printing process from OS
           289 MiB allocation reported by mallinfo(arena+hblkhd)
        688081 MiB available memory on the node where the printing process lives
------------------
     ethr =  1.21E-05,  avg # of iterations =  3.3

     total cpu time spent up to now is     1496.6 secs

     total energy              =   -7336.40459683 Ry
     estimated scf accuracy    <       0.06062570 Ry

     total magnetization       =     2.06    -0.26     0.02 Bohr mag/cell
     absolute magnetization    =    10.48 Bohr mag/cell

     iteration # 55     ecut=    50.00 Ry     beta= 0.05
     CG style diagonalization

---- Real-time Memory Report at c_bands before calling an iterative solver
           472 MiB given to the printing process from OS
           289 MiB allocation reported by mallinfo(arena+hblkhd)
        688823 MiB available memory on the node where the printing process lives
------------------
     ethr =  1.21E-05,  avg # of iterations =  3.2

     total cpu time spent up to now is     1522.9 secs

     total energy              =   -7336.44413086 Ry
     estimated scf accuracy    <       0.05694662 Ry

     total magnetization       =     2.12    -0.17    -0.02 Bohr mag/cell
     absolute magnetization    =    10.63 Bohr mag/cell

     iteration # 56     ecut=    50.00 Ry     beta= 0.05
     CG style diagonalization

---- Real-time Memory Report at c_bands before calling an iterative solver
           472 MiB given to the printing process from OS
           289 MiB allocation reported by mallinfo(arena+hblkhd)
        688272 MiB available memory on the node where the printing process lives
------------------
     ethr =  1.21E-05,  avg # of iterations =  3.0

     total cpu time spent up to now is     1546.4 secs

     total energy              =   -7336.58382252 Ry
     estimated scf accuracy    <       0.05013871 Ry

     total magnetization       =     2.10    -0.20    -0.05 Bohr mag/cell
     absolute magnetization    =    10.72 Bohr mag/cell

     iteration # 57     ecut=    50.00 Ry     beta= 0.05
     CG style diagonalization

---- Real-time Memory Report at c_bands before calling an iterative solver
           472 MiB given to the printing process from OS
           289 MiB allocation reported by mallinfo(arena+hblkhd)
        688288 MiB available memory on the node where the printing process lives
------------------
     ethr =  1.21E-05,  avg # of iterations =  3.3

     total cpu time spent up to now is     1573.4 secs

     total energy              =   -7336.72751045 Ry
     estimated scf accuracy    <       0.08591149 Ry

     total magnetization       =     2.17    -0.16    -0.13 Bohr mag/cell
     absolute magnetization    =    10.77 Bohr mag/cell

     iteration # 58     ecut=    50.00 Ry     beta= 0.05
     CG style diagonalization

---- Real-time Memory Report at c_bands before calling an iterative solver
           472 MiB given to the printing process from OS
           289 MiB allocation reported by mallinfo(arena+hblkhd)
        688363 MiB available memory on the node where the printing process lives
------------------
     ethr =  1.21E-05,  avg # of iterations =  4.0

     total cpu time spent up to now is     1607.6 secs

     total energy              =   -7336.75340406 Ry
     estimated scf accuracy    <       0.09506827 Ry

     total magnetization       =     2.33    -0.23    -0.38 Bohr mag/cell
     absolute magnetization    =    11.14 Bohr mag/cell

     iteration # 59     ecut=    50.00 Ry     beta= 0.05
     CG style diagonalization

---- Real-time Memory Report at c_bands before calling an iterative solver
           472 MiB given to the printing process from OS
           289 MiB allocation reported by mallinfo(arena+hblkhd)
        689187 MiB available memory on the node where the printing process lives
------------------
     ethr =  1.21E-05,  avg # of iterations =  4.0

     total cpu time spent up to now is     1641.1 secs

     total energy              =   -7336.53844987 Ry
     estimated scf accuracy    <       0.12298952 Ry

     total magnetization       =     2.47    -0.11    -0.35 Bohr mag/cell
     absolute magnetization    =    11.83 Bohr mag/cell

     iteration # 60     ecut=    50.00 Ry     beta= 0.05
     CG style diagonalization

---- Real-time Memory Report at c_bands before calling an iterative solver
           472 MiB given to the printing process from OS
           289 MiB allocation reported by mallinfo(arena+hblkhd)
        689386 MiB available memory on the node where the printing process lives
------------------
     ethr =  1.21E-05,  avg # of iterations =  3.5

     total cpu time spent up to now is     1669.3 secs

     total energy              =   -7336.62330635 Ry
     estimated scf accuracy    <       0.07561347 Ry

     total magnetization       =     2.25    -0.10    -0.01 Bohr mag/cell
     absolute magnetization    =    11.56 Bohr mag/cell

     iteration # 61     ecut=    50.00 Ry     beta= 0.05
     CG style diagonalization

---- Real-time Memory Report at c_bands before calling an iterative solver
           472 MiB given to the printing process from OS
           289 MiB allocation reported by mallinfo(arena+hblkhd)
        690119 MiB available memory on the node where the printing process lives
------------------
     ethr =  1.21E-05,  avg # of iterations =  3.2

     total cpu time spent up to now is     1694.7 secs

     total energy              =   -7336.65275710 Ry
     estimated scf accuracy    <       0.09281978 Ry

     total magnetization       =     2.38    -0.14    -0.19 Bohr mag/cell
     absolute magnetization    =    11.75 Bohr mag/cell

     iteration # 62     ecut=    50.00 Ry     beta= 0.05
     CG style diagonalization

---- Real-time Memory Report at c_bands before calling an iterative solver
           472 MiB given to the printing process from OS
           289 MiB allocation reported by mallinfo(arena+hblkhd)
        688503 MiB available memory on the node where the printing process lives
------------------
     ethr =  1.21E-05,  avg # of iterations =  3.0

     total cpu time spent up to now is     1717.9 secs

     total energy              =   -7336.37880893 Ry
     estimated scf accuracy    <       0.07902049 Ry

     total magnetization       =     2.27    -0.12    -0.22 Bohr mag/cell
     absolute magnetization    =    11.42 Bohr mag/cell

     iteration # 63     ecut=    50.00 Ry     beta= 0.05
     CG style diagonalization

---- Real-time Memory Report at c_bands before calling an iterative solver
           472 MiB given to the printing process from OS
           289 MiB allocation reported by mallinfo(arena+hblkhd)
        688301 MiB available memory on the node where the printing process lives
------------------
     ethr =  1.21E-05,  avg # of iterations =  3.3

     total cpu time spent up to now is     1743.8 secs

     total energy              =   -7336.40473949 Ry
     estimated scf accuracy    <       0.08405560 Ry

     total magnetization       =     2.07    -0.22    -0.18 Bohr mag/cell
     absolute magnetization    =    11.36 Bohr mag/cell

     iteration # 64     ecut=    50.00 Ry     beta= 0.05
     CG style diagonalization

---- Real-time Memory Report at c_bands before calling an iterative solver
           472 MiB given to the printing process from OS
           289 MiB allocation reported by mallinfo(arena+hblkhd)
        688272 MiB available memory on the node where the printing process lives
------------------
     ethr =  1.21E-05,  avg # of iterations =  3.2

     total cpu time spent up to now is     1769.1 secs

     total energy              =   -7336.53466843 Ry
     estimated scf accuracy    <       0.06504744 Ry

     total magnetization       =     2.07    -0.23    -0.24 Bohr mag/cell
     absolute magnetization    =    11.16 Bohr mag/cell

     iteration # 65     ecut=    50.00 Ry     beta= 0.05
     CG style diagonalization

---- Real-time Memory Report at c_bands before calling an iterative solver
           472 MiB given to the printing process from OS
           289 MiB allocation reported by mallinfo(arena+hblkhd)
        688919 MiB available memory on the node where the printing process lives
------------------
     ethr =  1.21E-05,  avg # of iterations =  3.1

     total cpu time spent up to now is     1793.0 secs

     total energy              =   -7336.67487636 Ry
     estimated scf accuracy    <       0.05029386 Ry

     total magnetization       =     2.25    -0.03    -0.15 Bohr mag/cell
     absolute magnetization    =    11.29 Bohr mag/cell

     iteration # 66     ecut=    50.00 Ry     beta= 0.05
     CG style diagonalization

---- Real-time Memory Report at c_bands before calling an iterative solver
           472 MiB given to the printing process from OS
           289 MiB allocation reported by mallinfo(arena+hblkhd)
        688156 MiB available memory on the node where the printing process lives
------------------
     ethr =  1.21E-05,  avg # of iterations =  3.2

     total cpu time spent up to now is     1818.0 secs

     total energy              =   -7336.72018407 Ry
     estimated scf accuracy    <       0.05658859 Ry

     total magnetization       =     2.35    -0.00    -0.27 Bohr mag/cell
     absolute magnetization    =    11.53 Bohr mag/cell

     iteration # 67     ecut=    50.00 Ry     beta= 0.05
     CG style diagonalization

---- Real-time Memory Report at c_bands before calling an iterative solver
           472 MiB given to the printing process from OS
           289 MiB allocation reported by mallinfo(arena+hblkhd)
        688816 MiB available memory on the node where the printing process lives
------------------
     ethr =  1.21E-05,  avg # of iterations =  3.2

     total cpu time spent up to now is     1843.7 secs

     total energy              =   -7336.76477944 Ry
     estimated scf accuracy    <       0.05617976 Ry

     total magnetization       =     2.39    -0.00    -0.30 Bohr mag/cell
     absolute magnetization    =    11.89 Bohr mag/cell

     iteration # 68     ecut=    50.00 Ry     beta= 0.05
     CG style diagonalization

---- Real-time Memory Report at c_bands before calling an iterative solver
           472 MiB given to the printing process from OS
           289 MiB allocation reported by mallinfo(arena+hblkhd)
        688785 MiB available memory on the node where the printing process lives
------------------
     ethr =  1.21E-05,  avg # of iterations =  3.2

     total cpu time spent up to now is     1868.9 secs

     total energy              =   -7336.78422255 Ry
     estimated scf accuracy    <       0.06602326 Ry

     total magnetization       =     2.40     0.11    -0.36 Bohr mag/cell
     absolute magnetization    =    12.19 Bohr mag/cell

     iteration # 69     ecut=    50.00 Ry     beta= 0.05
     CG style diagonalization

---- Real-time Memory Report at c_bands before calling an iterative solver
           472 MiB given to the printing process from OS
           289 MiB allocation reported by mallinfo(arena+hblkhd)
        688106 MiB available memory on the node where the printing process lives
------------------
     ethr =  1.21E-05,  avg # of iterations =  3.2

     total cpu time spent up to now is     1894.1 secs

     total energy              =   -7336.77910818 Ry
     estimated scf accuracy    <       0.05667160 Ry

     total magnetization       =     2.41     0.10    -0.42 Bohr mag/cell
     absolute magnetization    =    12.46 Bohr mag/cell

     iteration # 70     ecut=    50.00 Ry     beta= 0.05
     CG style diagonalization

---- Real-time Memory Report at c_bands before calling an iterative solver
           472 MiB given to the printing process from OS
           289 MiB allocation reported by mallinfo(arena+hblkhd)
        689586 MiB available memory on the node where the printing process lives
------------------
     ethr =  1.21E-05,  avg # of iterations =  3.3

     total cpu time spent up to now is     1920.1 secs

     total energy              =   -7336.74928794 Ry
     estimated scf accuracy    <       0.05991423 Ry

     total magnetization       =     2.39    -0.05    -0.65 Bohr mag/cell
     absolute magnetization    =    12.38 Bohr mag/cell

     iteration # 71     ecut=    50.00 Ry     beta= 0.05
     CG style diagonalization

---- Real-time Memory Report at c_bands before calling an iterative solver
           472 MiB given to the printing process from OS
           289 MiB allocation reported by mallinfo(arena+hblkhd)
        689620 MiB available memory on the node where the printing process lives
------------------
     ethr =  1.21E-05,  avg # of iterations =  3.2

     total cpu time spent up to now is     1945.0 secs

     total energy              =   -7336.70203676 Ry
     estimated scf accuracy    <       0.08448601 Ry

     total magnetization       =     2.26    -0.11    -0.67 Bohr mag/cell
     absolute magnetization    =    12.43 Bohr mag/cell

     iteration # 72     ecut=    50.00 Ry     beta= 0.05
     CG style diagonalization

---- Real-time Memory Report at c_bands before calling an iterative solver
           472 MiB given to the printing process from OS
           289 MiB allocation reported by mallinfo(arena+hblkhd)
        688187 MiB available memory on the node where the printing process lives
------------------
     ethr =  1.21E-05,  avg # of iterations =  3.1

     total cpu time spent up to now is     1969.4 secs

     total energy              =   -7336.63761703 Ry
     estimated scf accuracy    <       0.12974378 Ry

     total magnetization       =     2.29    -0.02    -0.69 Bohr mag/cell
     absolute magnetization    =    12.19 Bohr mag/cell

     iteration # 73     ecut=    50.00 Ry     beta= 0.05
     CG style diagonalization

---- Real-time Memory Report at c_bands before calling an iterative solver
           472 MiB given to the printing process from OS
           289 MiB allocation reported by mallinfo(arena+hblkhd)
        688949 MiB available memory on the node where the printing process lives
------------------
     ethr =  1.21E-05,  avg # of iterations =  3.1

     total cpu time spent up to now is     1993.2 secs

     total energy              =   -7336.81509175 Ry
     estimated scf accuracy    <       0.06194693 Ry

     total magnetization       =     2.35    -0.02    -0.47 Bohr mag/cell
     absolute magnetization    =    12.19 Bohr mag/cell

     iteration # 74     ecut=    50.00 Ry     beta= 0.05
     CG style diagonalization

---- Real-time Memory Report at c_bands before calling an iterative solver
           472 MiB given to the printing process from OS
           289 MiB allocation reported by mallinfo(arena+hblkhd)
        688154 MiB available memory on the node where the printing process lives
------------------
     ethr =  1.21E-05,  avg # of iterations =  3.2

     total cpu time spent up to now is     2018.6 secs

     total energy              =   -7336.82890384 Ry
     estimated scf accuracy    <       0.04085416 Ry

     total magnetization       =     2.45    -0.04    -0.58 Bohr mag/cell
     absolute magnetization    =    12.54 Bohr mag/cell

     iteration # 75     ecut=    50.00 Ry     beta= 0.05
     CG style diagonalization

---- Real-time Memory Report at c_bands before calling an iterative solver
           472 MiB given to the printing process from OS
           289 MiB allocation reported by mallinfo(arena+hblkhd)
        688970 MiB available memory on the node where the printing process lives
------------------
     ethr =  1.00E-05,  avg # of iterations =  3.3

     total cpu time spent up to now is     2045.3 secs

     total energy              =   -7336.82995236 Ry
     estimated scf accuracy    <       0.05314899 Ry

     total magnetization       =     2.46    -0.14    -0.64 Bohr mag/cell
     absolute magnetization    =    12.45 Bohr mag/cell

     iteration # 76     ecut=    50.00 Ry     beta= 0.05
     CG style diagonalization

---- Real-time Memory Report at c_bands before calling an iterative solver
           473 MiB given to the printing process from OS
           289 MiB allocation reported by mallinfo(arena+hblkhd)
        690818 MiB available memory on the node where the printing process lives
------------------
     ethr =  1.00E-05,  avg # of iterations =  3.7

     total cpu time spent up to now is     2076.1 secs

     total energy              =   -7336.83685087 Ry
     estimated scf accuracy    <       0.06954236 Ry

     total magnetization       =     2.53    -0.05    -0.71 Bohr mag/cell
     absolute magnetization    =    12.46 Bohr mag/cell

     iteration # 77     ecut=    50.00 Ry     beta= 0.05
     CG style diagonalization

---- Real-time Memory Report at c_bands before calling an iterative solver
           473 MiB given to the printing process from OS
           289 MiB allocation reported by mallinfo(arena+hblkhd)
        688490 MiB available memory on the node where the printing process lives
------------------
     ethr =  1.00E-05,  avg # of iterations =  3.2

     total cpu time spent up to now is     2100.9 secs

     total energy              =   -7336.78424601 Ry
     estimated scf accuracy    <       0.08240139 Ry

     total magnetization       =     2.50    -0.13    -0.76 Bohr mag/cell
     absolute magnetization    =    12.43 Bohr mag/cell

     iteration # 78     ecut=    50.00 Ry     beta= 0.05
     CG style diagonalization

---- Real-time Memory Report at c_bands before calling an iterative solver
           473 MiB given to the printing process from OS
           289 MiB allocation reported by mallinfo(arena+hblkhd)
        688411 MiB available memory on the node where the printing process lives
------------------
     ethr =  1.00E-05,  avg # of iterations =  4.2

     total cpu time spent up to now is     2136.5 secs

     total energy              =   -7336.77510653 Ry
     estimated scf accuracy    <       0.26601076 Ry

     total magnetization       =     2.08    -0.17    -1.07 Bohr mag/cell
     absolute magnetization    =    12.19 Bohr mag/cell

     iteration # 79     ecut=    50.00 Ry     beta= 0.05
     CG style diagonalization

---- Real-time Memory Report at c_bands before calling an iterative solver
           473 MiB given to the printing process from OS
           289 MiB allocation reported by mallinfo(arena+hblkhd)
        690111 MiB available memory on the node where the printing process lives
------------------
     ethr =  1.00E-05,  avg # of iterations =  4.0

     total cpu time spent up to now is     2170.1 secs

     total energy              =   -7336.78154347 Ry
     estimated scf accuracy    <       0.31844340 Ry

     total magnetization       =     1.93    -0.18    -1.06 Bohr mag/cell
     absolute magnetization    =    12.34 Bohr mag/cell

     iteration # 80     ecut=    50.00 Ry     beta= 0.05
     CG style diagonalization

---- Real-time Memory Report at c_bands before calling an iterative solver
           473 MiB given to the printing process from OS
           289 MiB allocation reported by mallinfo(arena+hblkhd)
        689431 MiB available memory on the node where the printing process lives
------------------
     ethr =  1.00E-05,  avg # of iterations =  3.3

     total cpu time spent up to now is     2196.6 secs

     total energy              =   -7336.77404402 Ry
     estimated scf accuracy    <       0.29291259 Ry

     total magnetization       =     2.00    -0.20    -1.10 Bohr mag/cell
     absolute magnetization    =    12.20 Bohr mag/cell

     iteration # 81     ecut=    50.00 Ry     beta= 0.05
     CG style diagonalization

---- Real-time Memory Report at c_bands before calling an iterative solver
           473 MiB given to the printing process from OS
           289 MiB allocation reported by mallinfo(arena+hblkhd)
        688644 MiB available memory on the node where the printing process lives
------------------
     ethr =  1.00E-05,  avg # of iterations =  3.1

     total cpu time spent up to now is     2221.0 secs

     total energy              =   -7336.75309900 Ry
     estimated scf accuracy    <       0.30352663 Ry

     total magnetization       =     1.98    -0.23    -1.08 Bohr mag/cell
     absolute magnetization    =    12.17 Bohr mag/cell

     iteration # 82     ecut=    50.00 Ry     beta= 0.05
     CG style diagonalization

---- Real-time Memory Report at c_bands before calling an iterative solver
           473 MiB given to the printing process from OS
           289 MiB allocation reported by mallinfo(arena+hblkhd)
        689131 MiB available memory on the node where the printing process lives
------------------
     ethr =  1.00E-05,  avg # of iterations =  3.3

     total cpu time spent up to now is     2247.4 secs

     total energy              =   -7336.77456281 Ry
     estimated scf accuracy    <       0.28060760 Ry

     total magnetization       =     2.03    -0.14    -0.96 Bohr mag/cell
     absolute magnetization    =    12.39 Bohr mag/cell

     iteration # 83     ecut=    50.00 Ry     beta= 0.05
     CG style diagonalization

---- Real-time Memory Report at c_bands before calling an iterative solver
           473 MiB given to the printing process from OS
           289 MiB allocation reported by mallinfo(arena+hblkhd)
        688515 MiB available memory on the node where the printing process lives
------------------
     ethr =  1.00E-05,  avg # of iterations =  3.1

     total cpu time spent up to now is     2271.6 secs

     total energy              =   -7336.77681527 Ry
     estimated scf accuracy    <       0.26704391 Ry

     total magnetization       =     2.14    -0.11    -1.07 Bohr mag/cell
     absolute magnetization    =    12.58 Bohr mag/cell

     iteration # 84     ecut=    50.00 Ry     beta= 0.05
     CG style diagonalization

---- Real-time Memory Report at c_bands before calling an iterative solver
           473 MiB given to the printing process from OS
           289 MiB allocation reported by mallinfo(arena+hblkhd)
        688985 MiB available memory on the node where the printing process lives
------------------
     ethr =  1.00E-05,  avg # of iterations =  3.1

     total cpu time spent up to now is     2296.2 secs

     total energy              =   -7336.87089925 Ry
     estimated scf accuracy    <       0.25936903 Ry

     total magnetization       =     2.07    -0.13    -1.01 Bohr mag/cell
     absolute magnetization    =    12.76 Bohr mag/cell

     iteration # 85     ecut=    50.00 Ry     beta= 0.05
     CG style diagonalization

---- Real-time Memory Report at c_bands before calling an iterative solver
           473 MiB given to the printing process from OS
           289 MiB allocation reported by mallinfo(arena+hblkhd)
        688956 MiB available memory on the node where the printing process lives
------------------
     ethr =  1.00E-05,  avg # of iterations =  3.4

     total cpu time spent up to now is     2323.8 secs

     total energy              =   -7336.83957124 Ry
     estimated scf accuracy    <       0.07696139 Ry

     total magnetization       =     2.50     0.01    -0.71 Bohr mag/cell
     absolute magnetization    =    13.33 Bohr mag/cell

     iteration # 86     ecut=    50.00 Ry     beta= 0.05
     CG style diagonalization

---- Real-time Memory Report at c_bands before calling an iterative solver
           473 MiB given to the printing process from OS
           289 MiB allocation reported by mallinfo(arena+hblkhd)
        689055 MiB available memory on the node where the printing process lives
------------------
     ethr =  1.00E-05,  avg # of iterations =  3.3

     total cpu time spent up to now is     2350.1 secs

     total energy              =   -7336.85964298 Ry
     estimated scf accuracy    <       0.13898140 Ry

     total magnetization       =     2.34    -0.05    -0.89 Bohr mag/cell
     absolute magnetization    =    13.26 Bohr mag/cell

     iteration # 87     ecut=    50.00 Ry     beta= 0.05
     CG style diagonalization

---- Real-time Memory Report at c_bands before calling an iterative solver
           473 MiB given to the printing process from OS
           289 MiB allocation reported by mallinfo(arena+hblkhd)
        688344 MiB available memory on the node where the printing process lives
------------------
     ethr =  1.00E-05,  avg # of iterations =  3.4

     total cpu time spent up to now is     2377.2 secs

     total energy              =   -7336.86289889 Ry
     estimated scf accuracy    <       0.06559633 Ry

     total magnetization       =     2.54    -0.02    -0.70 Bohr mag/cell
     absolute magnetization    =    13.27 Bohr mag/cell

     iteration # 88     ecut=    50.00 Ry     beta= 0.05
     CG style diagonalization

---- Real-time Memory Report at c_bands before calling an iterative solver
           473 MiB given to the printing process from OS
           289 MiB allocation reported by mallinfo(arena+hblkhd)
        689875 MiB available memory on the node where the printing process lives
------------------
     ethr =  1.00E-05,  avg # of iterations =  3.3

     total cpu time spent up to now is     2403.0 secs

     total energy              =   -7336.83525839 Ry
     estimated scf accuracy    <       0.08683853 Ry

     total magnetization       =     2.50    -0.01    -0.82 Bohr mag/cell
     absolute magnetization    =    12.95 Bohr mag/cell

     iteration # 89     ecut=    50.00 Ry     beta= 0.05
     CG style diagonalization

---- Real-time Memory Report at c_bands before calling an iterative solver
           473 MiB given to the printing process from OS
           289 MiB allocation reported by mallinfo(arena+hblkhd)
        688403 MiB available memory on the node where the printing process lives
------------------
     ethr =  1.00E-05,  avg # of iterations =  3.1

     total cpu time spent up to now is     2427.7 secs

     total energy              =   -7336.84006313 Ry
     estimated scf accuracy    <       0.07739025 Ry

     total magnetization       =     2.59    -0.11    -0.75 Bohr mag/cell
     absolute magnetization    =    12.81 Bohr mag/cell

     iteration # 90     ecut=    50.00 Ry     beta= 0.05
     CG style diagonalization

---- Real-time Memory Report at c_bands before calling an iterative solver
           473 MiB given to the printing process from OS
           289 MiB allocation reported by mallinfo(arena+hblkhd)
        688279 MiB available memory on the node where the printing process lives
------------------
     ethr =  1.00E-05,  avg # of iterations =  3.0

     total cpu time spent up to now is     2451.0 secs

     total energy              =   -7336.85448241 Ry
     estimated scf accuracy    <       0.06088155 Ry

     total magnetization       =     2.62    -0.05    -0.67 Bohr mag/cell
     absolute magnetization    =    12.83 Bohr mag/cell

     iteration # 91     ecut=    50.00 Ry     beta= 0.05
     CG style diagonalization

---- Real-time Memory Report at c_bands before calling an iterative solver
           473 MiB given to the printing process from OS
           289 MiB allocation reported by mallinfo(arena+hblkhd)
        689417 MiB available memory on the node where the printing process lives
------------------
     ethr =  1.00E-05,  avg # of iterations =  3.1

     total cpu time spent up to now is     2475.1 secs

     total energy              =   -7336.88112525 Ry
     estimated scf accuracy    <       0.04477501 Ry

     total magnetization       =     2.58     0.07    -0.61 Bohr mag/cell
     absolute magnetization    =    12.94 Bohr mag/cell

     iteration # 92     ecut=    50.00 Ry     beta= 0.05
     CG style diagonalization

---- Real-time Memory Report at c_bands before calling an iterative solver
           473 MiB given to the printing process from OS
           289 MiB allocation reported by mallinfo(arena+hblkhd)
        688808 MiB available memory on the node where the printing process lives
------------------
     ethr =  1.00E-05,  avg # of iterations =  3.2

     total cpu time spent up to now is     2500.7 secs

     total energy              =   -7336.86367451 Ry
     estimated scf accuracy    <       0.05654580 Ry

     total magnetization       =     2.54     0.15    -0.66 Bohr mag/cell
     absolute magnetization    =    13.20 Bohr mag/cell

     iteration # 93     ecut=    50.00 Ry     beta= 0.05
     CG style diagonalization

---- Real-time Memory Report at c_bands before calling an iterative solver
           473 MiB given to the printing process from OS
           289 MiB allocation reported by mallinfo(arena+hblkhd)
        688181 MiB available memory on the node where the printing process lives
------------------
     ethr =  1.00E-05,  avg # of iterations =  3.3

     total cpu time spent up to now is     2526.8 secs

     total energy              =   -7336.88442145 Ry
     estimated scf accuracy    <       0.05443309 Ry

     total magnetization       =     2.53     0.11    -0.59 Bohr mag/cell
     absolute magnetization    =    13.47 Bohr mag/cell

     iteration # 94     ecut=    50.00 Ry     beta= 0.05
     CG style diagonalization

---- Real-time Memory Report at c_bands before calling an iterative solver
           473 MiB given to the printing process from OS
           289 MiB allocation reported by mallinfo(arena+hblkhd)
        688190 MiB available memory on the node where the printing process lives
------------------
     ethr =  1.00E-05,  avg # of iterations =  3.1

     total cpu time spent up to now is     2551.3 secs

     total energy              =   -7336.86772644 Ry
     estimated scf accuracy    <       0.04765018 Ry

     total magnetization       =     2.49     0.08    -0.57 Bohr mag/cell
     absolute magnetization    =    13.29 Bohr mag/cell

     iteration # 95     ecut=    50.00 Ry     beta= 0.05
     CG style diagonalization

---- Real-time Memory Report at c_bands before calling an iterative solver
           473 MiB given to the printing process from OS
           289 MiB allocation reported by mallinfo(arena+hblkhd)
        688911 MiB available memory on the node where the printing process lives
------------------
     ethr =  1.00E-05,  avg # of iterations =  3.1

     total cpu time spent up to now is     2575.7 secs

     total energy              =   -7336.83169753 Ry
     estimated scf accuracy    <       0.06940977 Ry

     total magnetization       =     2.44     0.14    -0.54 Bohr mag/cell
     absolute magnetization    =    13.33 Bohr mag/cell

     iteration # 96     ecut=    50.00 Ry     beta= 0.05
     CG style diagonalization

---- Real-time Memory Report at c_bands before calling an iterative solver
           473 MiB given to the printing process from OS
           289 MiB allocation reported by mallinfo(arena+hblkhd)
        691721 MiB available memory on the node where the printing process lives
------------------
     ethr =  1.00E-05,  avg # of iterations =  3.2

     total cpu time spent up to now is     2600.7 secs

     total energy              =   -7336.78198155 Ry
     estimated scf accuracy    <       0.05984184 Ry

     total magnetization       =     2.52     0.09    -0.60 Bohr mag/cell
     absolute magnetization    =    13.15 Bohr mag/cell

     iteration # 97     ecut=    50.00 Ry     beta= 0.05
     CG style diagonalization

---- Real-time Memory Report at c_bands before calling an iterative solver
           473 MiB given to the printing process from OS
           289 MiB allocation reported by mallinfo(arena+hblkhd)
        693100 MiB available memory on the node where the printing process lives
------------------
     ethr =  1.00E-05,  avg # of iterations =  3.4

     total cpu time spent up to now is     2627.7 secs

     total energy              =   -7336.78578844 Ry
     estimated scf accuracy    <       0.13279300 Ry

     total magnetization       =     2.26    -0.16    -0.96 Bohr mag/cell
     absolute magnetization    =    12.32 Bohr mag/cell

     iteration # 98     ecut=    50.00 Ry     beta= 0.05
     CG style diagonalization

---- Real-time Memory Report at c_bands before calling an iterative solver
           473 MiB given to the printing process from OS
           289 MiB allocation reported by mallinfo(arena+hblkhd)
        692378 MiB available memory on the node where the printing process lives
------------------
     ethr =  1.00E-05,  avg # of iterations =  3.7

     total cpu time spent up to now is     2658.2 secs

     total energy              =   -7336.80659441 Ry
     estimated scf accuracy    <       0.12485557 Ry

     total magnetization       =     2.36    -0.20    -0.91 Bohr mag/cell
     absolute magnetization    =    11.87 Bohr mag/cell

     iteration # 99     ecut=    50.00 Ry     beta= 0.05
     CG style diagonalization

---- Real-time Memory Report at c_bands before calling an iterative solver
           473 MiB given to the printing process from OS
           289 MiB allocation reported by mallinfo(arena+hblkhd)
        691256 MiB available memory on the node where the printing process lives
------------------
     ethr =  1.00E-05,  avg # of iterations =  3.1

     total cpu time spent up to now is     2682.4 secs

     total energy              =   -7336.80341818 Ry
     estimated scf accuracy    <       0.12703664 Ry

     total magnetization       =     2.32    -0.18    -0.92 Bohr mag/cell
     absolute magnetization    =    11.82 Bohr mag/cell

     iteration #100     ecut=    50.00 Ry     beta= 0.05
     CG style diagonalization

---- Real-time Memory Report at c_bands before calling an iterative solver
           473 MiB given to the printing process from OS
           289 MiB allocation reported by mallinfo(arena+hblkhd)
        691923 MiB available memory on the node where the printing process lives
------------------
     ethr =  1.00E-05,  avg # of iterations =  3.1

     total cpu time spent up to now is     2707.0 secs

     total energy              =   -7336.81389814 Ry
     estimated scf accuracy    <       0.10948331 Ry

     total magnetization       =     2.39    -0.10    -0.85 Bohr mag/cell
     absolute magnetization    =    11.96 Bohr mag/cell

     iteration #101     ecut=    50.00 Ry     beta= 0.05
     CG style diagonalization

---- Real-time Memory Report at c_bands before calling an iterative solver
           473 MiB given to the printing process from OS
           289 MiB allocation reported by mallinfo(arena+hblkhd)
        691107 MiB available memory on the node where the printing process lives
------------------
     ethr =  1.00E-05,  avg # of iterations =  3.1

     total cpu time spent up to now is     2731.7 secs

     total energy              =   -7336.79192820 Ry
     estimated scf accuracy    <       0.08480300 Ry

     total magnetization       =     2.39    -0.09    -0.73 Bohr mag/cell
     absolute magnetization    =    12.09 Bohr mag/cell

     iteration #102     ecut=    50.00 Ry     beta= 0.05
     CG style diagonalization

---- Real-time Memory Report at c_bands before calling an iterative solver
           473 MiB given to the printing process from OS
           289 MiB allocation reported by mallinfo(arena+hblkhd)
        691725 MiB available memory on the node where the printing process lives
------------------
     ethr =  1.00E-05,  avg # of iterations =  3.2

     total cpu time spent up to now is     2756.5 secs

     total energy              =   -7336.81989665 Ry
     estimated scf accuracy    <       0.06975880 Ry

     total magnetization       =     2.46    -0.17    -0.78 Bohr mag/cell
     absolute magnetization    =    11.97 Bohr mag/cell

     iteration #103     ecut=    50.00 Ry     beta= 0.05
     CG style diagonalization

---- Real-time Memory Report at c_bands before calling an iterative solver
           473 MiB given to the printing process from OS
           289 MiB allocation reported by mallinfo(arena+hblkhd)
        691132 MiB available memory on the node where the printing process lives
------------------
     ethr =  1.00E-05,  avg # of iterations =  3.2

     total cpu time spent up to now is     2782.2 secs

     total energy              =   -7336.77708830 Ry
     estimated scf accuracy    <       0.11320013 Ry

     total magnetization       =     2.52    -0.12    -1.05 Bohr mag/cell
     absolute magnetization    =    12.20 Bohr mag/cell

     iteration #104     ecut=    50.00 Ry     beta= 0.05
     CG style diagonalization

---- Real-time Memory Report at c_bands before calling an iterative solver
           473 MiB given to the printing process from OS
           289 MiB allocation reported by mallinfo(arena+hblkhd)
        691533 MiB available memory on the node where the printing process lives
------------------
     ethr =  1.00E-05,  avg # of iterations =  3.4

     total cpu time spent up to now is     2809.5 secs

     total energy              =   -7336.80869050 Ry
     estimated scf accuracy    <       0.11116961 Ry

     total magnetization       =     2.38    -0.20    -0.97 Bohr mag/cell
     absolute magnetization    =    11.77 Bohr mag/cell

     iteration #105     ecut=    50.00 Ry     beta= 0.05
     CG style diagonalization

---- Real-time Memory Report at c_bands before calling an iterative solver
           473 MiB given to the printing process from OS
           289 MiB allocation reported by mallinfo(arena+hblkhd)
        691634 MiB available memory on the node where the printing process lives
------------------
     ethr =  1.00E-05,  avg # of iterations =  3.2

     total cpu time spent up to now is     2834.5 secs

     total energy              =   -7336.83602198 Ry
     estimated scf accuracy    <       0.05063756 Ry

     total magnetization       =     2.49    -0.22    -0.75 Bohr mag/cell
     absolute magnetization    =    11.78 Bohr mag/cell

     iteration #106     ecut=    50.00 Ry     beta= 0.05
     CG style diagonalization

---- Real-time Memory Report at c_bands before calling an iterative solver
           473 MiB given to the printing process from OS
           289 MiB allocation reported by mallinfo(arena+hblkhd)
        692967 MiB available memory on the node where the printing process lives
------------------
     ethr =  1.00E-05,  avg # of iterations =  3.3

     total cpu time spent up to now is     2860.9 secs

     total energy              =   -7336.85898050 Ry
     estimated scf accuracy    <       0.04278111 Ry

     total magnetization       =     2.80     0.00    -0.75 Bohr mag/cell
     absolute magnetization    =    12.52 Bohr mag/cell

     iteration #107     ecut=    50.00 Ry     beta= 0.05
     CG style diagonalization

---- Real-time Memory Report at c_bands before calling an iterative solver
           473 MiB given to the printing process from OS
           289 MiB allocation reported by mallinfo(arena+hblkhd)
        693176 MiB available memory on the node where the printing process lives
------------------
     ethr =  1.00E-05,  avg # of iterations =  3.3

     total cpu time spent up to now is     2887.2 secs

     total energy              =   -7336.83153626 Ry
     estimated scf accuracy    <       0.03694032 Ry

     total magnetization       =     2.76    -0.01    -0.70 Bohr mag/cell
     absolute magnetization    =    12.76 Bohr mag/cell

     iteration #108     ecut=    50.00 Ry     beta= 0.05
     CG style diagonalization

---- Real-time Memory Report at c_bands before calling an iterative solver
           473 MiB given to the printing process from OS
           289 MiB allocation reported by mallinfo(arena+hblkhd)
        691895 MiB available memory on the node where the printing process lives
------------------
     ethr =  9.05E-06,  avg # of iterations =  3.2

     total cpu time spent up to now is     2912.8 secs

     total energy              =   -7336.84840056 Ry
     estimated scf accuracy    <       0.04189880 Ry

     total magnetization       =     2.67    -0.07    -0.74 Bohr mag/cell
     absolute magnetization    =    12.42 Bohr mag/cell

     iteration #109     ecut=    50.00 Ry     beta= 0.05
     CG style diagonalization

---- Real-time Memory Report at c_bands before calling an iterative solver
           473 MiB given to the printing process from OS
           289 MiB allocation reported by mallinfo(arena+hblkhd)
        691840 MiB available memory on the node where the printing process lives
------------------
     ethr =  9.05E-06,  avg # of iterations =  3.1

     total cpu time spent up to now is     2937.3 secs

     total energy              =   -7336.76832086 Ry
     estimated scf accuracy    <       0.04450904 Ry

     total magnetization       =     2.68    -0.04    -0.75 Bohr mag/cell
     absolute magnetization    =    12.37 Bohr mag/cell

     iteration #110     ecut=    50.00 Ry     beta= 0.05
     CG style diagonalization

---- Real-time Memory Report at c_bands before calling an iterative solver
           473 MiB given to the printing process from OS
           289 MiB allocation reported by mallinfo(arena+hblkhd)
        691906 MiB available memory on the node where the printing process lives
------------------
     ethr =  9.05E-06,  avg # of iterations =  3.3

     total cpu time spent up to now is     2963.4 secs

     total energy              =   -7336.78945346 Ry
     estimated scf accuracy    <       0.06627926 Ry

     total magnetization       =     2.69    -0.23    -0.90 Bohr mag/cell
     absolute magnetization    =    11.80 Bohr mag/cell

     iteration #111     ecut=    50.00 Ry     beta= 0.05
     CG style diagonalization

---- Real-time Memory Report at c_bands before calling an iterative solver
           473 MiB given to the printing process from OS
           289 MiB allocation reported by mallinfo(arena+hblkhd)
        692589 MiB available memory on the node where the printing process lives
------------------
     ethr =  9.05E-06,  avg # of iterations =  3.3

     total cpu time spent up to now is     2989.5 secs

     total energy              =   -7336.79311604 Ry
     estimated scf accuracy    <       0.07244374 Ry

     total magnetization       =     2.58    -0.20    -0.84 Bohr mag/cell
     absolute magnetization    =    11.56 Bohr mag/cell

     iteration #112     ecut=    50.00 Ry     beta= 0.05
     CG style diagonalization

---- Real-time Memory Report at c_bands before calling an iterative solver
           473 MiB given to the printing process from OS
           289 MiB allocation reported by mallinfo(arena+hblkhd)
        691871 MiB available memory on the node where the printing process lives
------------------
     ethr =  9.05E-06,  avg # of iterations =  3.0

     total cpu time spent up to now is     3012.8 secs

     total energy              =   -7336.81486864 Ry
     estimated scf accuracy    <       0.07449803 Ry

     total magnetization       =     2.60    -0.19    -0.87 Bohr mag/cell
     absolute magnetization    =    11.59 Bohr mag/cell

     iteration #113     ecut=    50.00 Ry     beta= 0.05
     CG style diagonalization

---- Real-time Memory Report at c_bands before calling an iterative solver
           473 MiB given to the printing process from OS
           289 MiB allocation reported by mallinfo(arena+hblkhd)
        691735 MiB available memory on the node where the printing process lives
------------------
     ethr =  9.05E-06,  avg # of iterations =  3.1

     total cpu time spent up to now is     3037.4 secs

     total energy              =   -7336.78889352 Ry
     estimated scf accuracy    <       0.05859448 Ry

     total magnetization       =     2.63     0.00    -0.69 Bohr mag/cell
     absolute magnetization    =    11.75 Bohr mag/cell

     iteration #114     ecut=    50.00 Ry     beta= 0.05
     CG style diagonalization

---- Real-time Memory Report at c_bands before calling an iterative solver
           473 MiB given to the printing process from OS
           289 MiB allocation reported by mallinfo(arena+hblkhd)
        691700 MiB available memory on the node where the printing process lives
------------------
     ethr =  9.05E-06,  avg # of iterations =  3.3

     total cpu time spent up to now is     3063.2 secs

     total energy              =   -7336.83245462 Ry
     estimated scf accuracy    <       0.06210721 Ry

     total magnetization       =     2.79    -0.07    -1.06 Bohr mag/cell
     absolute magnetization    =    11.69 Bohr mag/cell

     iteration #115     ecut=    50.00 Ry     beta= 0.05
     CG style diagonalization

---- Real-time Memory Report at c_bands before calling an iterative solver
           473 MiB given to the printing process from OS
           289 MiB allocation reported by mallinfo(arena+hblkhd)
        693828 MiB available memory on the node where the printing process lives
------------------
     ethr =  9.05E-06,  avg # of iterations =  3.7

     total cpu time spent up to now is     3093.6 secs

     total energy              =   -7336.83047197 Ry
     estimated scf accuracy    <       0.05746967 Ry

     total magnetization       =     2.53    -0.02    -0.63 Bohr mag/cell
     absolute magnetization    =    12.65 Bohr mag/cell

     iteration #116     ecut=    50.00 Ry     beta= 0.05
     CG style diagonalization

---- Real-time Memory Report at c_bands before calling an iterative solver
           473 MiB given to the printing process from OS
           289 MiB allocation reported by mallinfo(arena+hblkhd)
        694524 MiB available memory on the node where the printing process lives
------------------
     ethr =  9.05E-06,  avg # of iterations =  3.4

     total cpu time spent up to now is     3121.6 secs

     total energy              =   -7336.83875288 Ry
     estimated scf accuracy    <       0.05137873 Ry

     total magnetization       =     2.56    -0.06    -0.84 Bohr mag/cell
     absolute magnetization    =    12.35 Bohr mag/cell

     iteration #117     ecut=    50.00 Ry     beta= 0.05
     CG style diagonalization

---- Real-time Memory Report at c_bands before calling an iterative solver
           473 MiB given to the printing process from OS
           289 MiB allocation reported by mallinfo(arena+hblkhd)
        694513 MiB available memory on the node where the printing process lives
------------------
     ethr =  9.05E-06,  avg # of iterations =  3.0

     total cpu time spent up to now is     3145.2 secs

     total energy              =   -7336.75536611 Ry
     estimated scf accuracy    <       0.05146894 Ry

     total magnetization       =     2.58    -0.04    -0.83 Bohr mag/cell
     absolute magnetization    =    12.36 Bohr mag/cell

     iteration #118     ecut=    50.00 Ry     beta= 0.05
     CG style diagonalization

---- Real-time Memory Report at c_bands before calling an iterative solver
           473 MiB given to the printing process from OS
           289 MiB allocation reported by mallinfo(arena+hblkhd)
        693180 MiB available memory on the node where the printing process lives
------------------
     ethr =  9.05E-06,  avg # of iterations =  3.3

     total cpu time spent up to now is     3171.8 secs

     total energy              =   -7336.78991390 Ry
     estimated scf accuracy    <       0.06217495 Ry

     total magnetization       =     2.55    -0.23    -1.15 Bohr mag/cell
     absolute magnetization    =    11.58 Bohr mag/cell

     iteration #119     ecut=    50.00 Ry     beta= 0.05
     CG style diagonalization

---- Real-time Memory Report at c_bands before calling an iterative solver
           473 MiB given to the printing process from OS
           289 MiB allocation reported by mallinfo(arena+hblkhd)
        693158 MiB available memory on the node where the printing process lives
------------------
     ethr =  9.05E-06,  avg # of iterations =  3.3

     total cpu time spent up to now is     3198.1 secs

     total energy              =   -7336.81817235 Ry
     estimated scf accuracy    <       0.05185499 Ry

     total magnetization       =     2.50    -0.15    -0.98 Bohr mag/cell
     absolute magnetization    =    11.33 Bohr mag/cell

     iteration #120     ecut=    50.00 Ry     beta= 0.05
     CG style diagonalization

---- Real-time Memory Report at c_bands before calling an iterative solver
           473 MiB given to the printing process from OS
           289 MiB allocation reported by mallinfo(arena+hblkhd)
        693235 MiB available memory on the node where the printing process lives
------------------
     ethr =  9.05E-06,  avg # of iterations =  3.2

     total cpu time spent up to now is     3223.7 secs

     total energy              =   -7336.84431730 Ry
     estimated scf accuracy    <       0.05372120 Ry

     total magnetization       =     2.47    -0.12    -0.82 Bohr mag/cell
     absolute magnetization    =    11.60 Bohr mag/cell

     iteration #121     ecut=    50.00 Ry     beta= 0.05
     CG style diagonalization

---- Real-time Memory Report at c_bands before calling an iterative solver
           473 MiB given to the printing process from OS
           289 MiB allocation reported by mallinfo(arena+hblkhd)
        693892 MiB available memory on the node where the printing process lives
------------------
     ethr =  9.05E-06,  avg # of iterations =  3.5

     total cpu time spent up to now is     3252.4 secs

     total energy              =   -7336.86325681 Ry
     estimated scf accuracy    <       0.05671113 Ry

     total magnetization       =     2.64    -0.05    -0.74 Bohr mag/cell
     absolute magnetization    =    12.50 Bohr mag/cell

     iteration #122     ecut=    50.00 Ry     beta= 0.05
     CG style diagonalization

---- Real-time Memory Report at c_bands before calling an iterative solver
           473 MiB given to the printing process from OS
           289 MiB allocation reported by mallinfo(arena+hblkhd)
        694023 MiB available memory on the node where the printing process lives
------------------
     ethr =  9.05E-06,  avg # of iterations =  4.0

     total cpu time spent up to now is     3285.8 secs

     total energy              =   -7336.80314048 Ry
     estimated scf accuracy    <       0.06438824 Ry

     total magnetization       =     2.61    -0.02    -0.64 Bohr mag/cell
     absolute magnetization    =    13.44 Bohr mag/cell

     iteration #123     ecut=    50.00 Ry     beta= 0.05
     CG style diagonalization

---- Real-time Memory Report at c_bands before calling an iterative solver
           473 MiB given to the printing process from OS
           289 MiB allocation reported by mallinfo(arena+hblkhd)
        694131 MiB available memory on the node where the printing process lives
------------------
     ethr =  9.05E-06,  avg # of iterations =  3.7

     total cpu time spent up to now is     3316.9 secs

     total energy              =   -7336.78680140 Ry
     estimated scf accuracy    <       0.08777540 Ry

     total magnetization       =     2.62    -0.00    -0.81 Bohr mag/cell
     absolute magnetization    =    13.68 Bohr mag/cell

     iteration #124     ecut=    50.00 Ry     beta= 0.05
     CG style diagonalization

---- Real-time Memory Report at c_bands before calling an iterative solver
           473 MiB given to the printing process from OS
           289 MiB allocation reported by mallinfo(arena+hblkhd)
        693474 MiB available memory on the node where the printing process lives
------------------
     ethr =  9.05E-06,  avg # of iterations =  3.4

     total cpu time spent up to now is     3344.1 secs

     total energy              =   -7336.74636524 Ry
     estimated scf accuracy    <       0.10094590 Ry

     total magnetization       =     2.55    -0.08    -0.76 Bohr mag/cell
     absolute magnetization    =    13.37 Bohr mag/cell

     iteration #125     ecut=    50.00 Ry     beta= 0.05
     CG style diagonalization

---- Real-time Memory Report at c_bands before calling an iterative solver
           473 MiB given to the printing process from OS
           289 MiB allocation reported by mallinfo(arena+hblkhd)
        694790 MiB available memory on the node where the printing process lives
------------------
     ethr =  9.05E-06,  avg # of iterations =  3.4

     total cpu time spent up to now is     3371.3 secs

     total energy              =   -7336.70007647 Ry
     estimated scf accuracy    <       0.09815899 Ry

     total magnetization       =     2.53    -0.04    -0.77 Bohr mag/cell
     absolute magnetization    =    12.99 Bohr mag/cell

     iteration #126     ecut=    50.00 Ry     beta= 0.05
     CG style diagonalization

---- Real-time Memory Report at c_bands before calling an iterative solver
           473 MiB given to the printing process from OS
           289 MiB allocation reported by mallinfo(arena+hblkhd)
        693454 MiB available memory on the node where the printing process lives
------------------
     ethr =  9.05E-06,  avg # of iterations =  3.8

     total cpu time spent up to now is     3402.9 secs

     total energy              =   -7336.76938177 Ry
     estimated scf accuracy    <       0.08094262 Ry

     total magnetization       =     2.64    -0.19    -1.17 Bohr mag/cell
     absolute magnetization    =    12.13 Bohr mag/cell

     iteration #127     ecut=    50.00 Ry     beta= 0.05
     CG style diagonalization

---- Real-time Memory Report at c_bands before calling an iterative solver
           473 MiB given to the printing process from OS
           289 MiB allocation reported by mallinfo(arena+hblkhd)
        694050 MiB available memory on the node where the printing process lives
------------------
     ethr =  9.05E-06,  avg # of iterations =  3.8

     total cpu time spent up to now is     3434.8 secs

     total energy              =   -7336.81655377 Ry
     estimated scf accuracy    <       0.10711117 Ry

     total magnetization       =     2.74     0.19    -0.58 Bohr mag/cell
     absolute magnetization    =    12.79 Bohr mag/cell

     iteration #128     ecut=    50.00 Ry     beta= 0.05
     CG style diagonalization

---- Real-time Memory Report at c_bands before calling an iterative solver
           473 MiB given to the printing process from OS
           289 MiB allocation reported by mallinfo(arena+hblkhd)
        693435 MiB available memory on the node where the printing process lives
------------------
     ethr =  9.05E-06,  avg # of iterations =  3.4

     total cpu time spent up to now is     3461.9 secs

     total energy              =   -7336.73810432 Ry
     estimated scf accuracy    <       0.09010359 Ry

     total magnetization       =     2.63    -0.01    -0.74 Bohr mag/cell
     absolute magnetization    =    12.64 Bohr mag/cell

     iteration #129     ecut=    50.00 Ry     beta= 0.05
     CG style diagonalization

---- Real-time Memory Report at c_bands before calling an iterative solver
           473 MiB given to the printing process from OS
           289 MiB allocation reported by mallinfo(arena+hblkhd)
        694025 MiB available memory on the node where the printing process lives
------------------
     ethr =  9.05E-06,  avg # of iterations =  3.6

     total cpu time spent up to now is     3491.0 secs

     total energy              =   -7336.80569036 Ry
     estimated scf accuracy    <       0.08546338 Ry

     total magnetization       =     2.69    -0.06    -0.89 Bohr mag/cell
     absolute magnetization    =    12.42 Bohr mag/cell

     iteration #130     ecut=    50.00 Ry     beta= 0.05
     CG style diagonalization

---- Real-time Memory Report at c_bands before calling an iterative solver
           473 MiB given to the printing process from OS
           289 MiB allocation reported by mallinfo(arena+hblkhd)
        694181 MiB available memory on the node where the printing process lives
------------------
     ethr =  9.05E-06,  avg # of iterations =  3.3

     total cpu time spent up to now is     3517.8 secs

     total energy              =   -7336.77835171 Ry
     estimated scf accuracy    <       0.07666197 Ry

     total magnetization       =     2.64    -0.02    -0.77 Bohr mag/cell
     absolute magnetization    =    12.61 Bohr mag/cell

     iteration #131     ecut=    50.00 Ry     beta= 0.05
     CG style diagonalization

---- Real-time Memory Report at c_bands before calling an iterative solver
           473 MiB given to the printing process from OS
           289 MiB allocation reported by mallinfo(arena+hblkhd)
        693466 MiB available memory on the node where the printing process lives
------------------
     ethr =  9.05E-06,  avg # of iterations =  3.4

     total cpu time spent up to now is     3545.1 secs

     total energy              =   -7336.80448874 Ry
     estimated scf accuracy    <       0.11522771 Ry

     total magnetization       =     2.64    -0.16    -1.18 Bohr mag/cell
     absolute magnetization    =    12.08 Bohr mag/cell

     iteration #132     ecut=    50.00 Ry     beta= 0.05
     CG style diagonalization

---- Real-time Memory Report at c_bands before calling an iterative solver
           473 MiB given to the printing process from OS
           289 MiB allocation reported by mallinfo(arena+hblkhd)
        693548 MiB available memory on the node where the printing process lives
------------------
     ethr =  9.05E-06,  avg # of iterations =  3.5

     total cpu time spent up to now is     3573.3 secs

     total energy              =   -7336.82206966 Ry
     estimated scf accuracy    <       0.06539214 Ry

     total magnetization       =     2.75    -0.00    -1.08 Bohr mag/cell
     absolute magnetization    =    11.91 Bohr mag/cell

     iteration #133     ecut=    50.00 Ry     beta= 0.05
     CG style diagonalization

---- Real-time Memory Report at c_bands before calling an iterative solver
           473 MiB given to the printing process from OS
           289 MiB allocation reported by mallinfo(arena+hblkhd)
        695071 MiB available memory on the node where the printing process lives
------------------
     ethr =  9.05E-06,  avg # of iterations =  3.3

     total cpu time spent up to now is     3599.4 secs

     total energy              =   -7336.84022470 Ry
     estimated scf accuracy    <       0.07345113 Ry

     total magnetization       =     2.73    -0.09    -1.02 Bohr mag/cell
     absolute magnetization    =    12.42 Bohr mag/cell

     iteration #134     ecut=    50.00 Ry     beta= 0.05
     CG style diagonalization

---- Real-time Memory Report at c_bands before calling an iterative solver
           473 MiB given to the printing process from OS
           289 MiB allocation reported by mallinfo(arena+hblkhd)
        695069 MiB available memory on the node where the printing process lives
------------------
     ethr =  9.05E-06,  avg # of iterations =  3.4

     total cpu time spent up to now is     3626.7 secs

     total energy              =   -7336.84724398 Ry
     estimated scf accuracy    <       0.07964707 Ry

     total magnetization       =     2.67    -0.04    -0.99 Bohr mag/cell
     absolute magnetization    =    12.66 Bohr mag/cell

     iteration #135     ecut=    50.00 Ry     beta= 0.05
     CG style diagonalization

---- Real-time Memory Report at c_bands before calling an iterative solver
           473 MiB given to the printing process from OS
           289 MiB allocation reported by mallinfo(arena+hblkhd)
        694877 MiB available memory on the node where the printing process lives
------------------
     ethr =  9.05E-06,  avg # of iterations =  3.0

     total cpu time spent up to now is     3650.1 secs

     total energy              =   -7336.53757185 Ry
     estimated scf accuracy    <       0.07287026 Ry

     total magnetization       =     2.69    -0.01    -0.96 Bohr mag/cell
     absolute magnetization    =    12.64 Bohr mag/cell

     iteration #136     ecut=    50.00 Ry     beta= 0.05
     CG style diagonalization

---- Real-time Memory Report at c_bands before calling an iterative solver
           473 MiB given to the printing process from OS
           289 MiB allocation reported by mallinfo(arena+hblkhd)
        694052 MiB available memory on the node where the printing process lives
------------------
     ethr =  9.05E-06,  avg # of iterations =  3.9

     total cpu time spent up to now is     3682.1 secs

     total energy              =   -7336.67177998 Ry
     estimated scf accuracy    <       0.16890956 Ry

     total magnetization       =     2.81    -0.11    -1.21 Bohr mag/cell
     absolute magnetization    =    12.65 Bohr mag/cell

     iteration #137     ecut=    50.00 Ry     beta= 0.05
     CG style diagonalization

---- Real-time Memory Report at c_bands before calling an iterative solver
           473 MiB given to the printing process from OS
           289 MiB allocation reported by mallinfo(arena+hblkhd)
        693501 MiB available memory on the node where the printing process lives
------------------
     ethr =  9.05E-06,  avg # of iterations =  4.4

     total cpu time spent up to now is     3719.4 secs

     total energy              =   -7336.72101188 Ry
     estimated scf accuracy    <       0.10560856 Ry

     total magnetization       =     2.69    -0.17    -1.39 Bohr mag/cell
     absolute magnetization    =    11.77 Bohr mag/cell

     iteration #138     ecut=    50.00 Ry     beta= 0.05
     CG style diagonalization

---- Real-time Memory Report at c_bands before calling an iterative solver
           473 MiB given to the printing process from OS
           289 MiB allocation reported by mallinfo(arena+hblkhd)
        693626 MiB available memory on the node where the printing process lives
------------------
     ethr =  9.05E-06,  avg # of iterations =  3.7

     total cpu time spent up to now is     3749.5 secs

     total energy              =   -7336.58002079 Ry
     estimated scf accuracy    <       0.09022065 Ry

     total magnetization       =     2.70    -0.12    -1.40 Bohr mag/cell
     absolute magnetization    =    11.22 Bohr mag/cell

     iteration #139     ecut=    50.00 Ry     beta= 0.05
     CG style diagonalization

---- Real-time Memory Report at c_bands before calling an iterative solver
           473 MiB given to the printing process from OS
           289 MiB allocation reported by mallinfo(arena+hblkhd)
        693586 MiB available memory on the node where the printing process lives
------------------
     ethr =  9.05E-06,  avg # of iterations =  3.8

     total cpu time spent up to now is     3781.0 secs

     total energy              =   -7336.59745045 Ry
     estimated scf accuracy    <       0.14766572 Ry

     total magnetization       =     2.45    -0.26    -1.21 Bohr mag/cell
     absolute magnetization    =    11.13 Bohr mag/cell

     iteration #140     ecut=    50.00 Ry     beta= 0.05
     CG style diagonalization

---- Real-time Memory Report at c_bands before calling an iterative solver
           473 MiB given to the printing process from OS
           289 MiB allocation reported by mallinfo(arena+hblkhd)
        694120 MiB available memory on the node where the printing process lives
------------------
     ethr =  9.05E-06,  avg # of iterations =  3.8

     total cpu time spent up to now is     3813.2 secs

     total energy              =   -7336.70502693 Ry
     estimated scf accuracy    <       0.21640235 Ry

     total magnetization       =     2.82    -0.06    -1.26 Bohr mag/cell
     absolute magnetization    =    11.89 Bohr mag/cell

     iteration #141     ecut=    50.00 Ry     beta= 0.05
     CG style diagonalization

---- Real-time Memory Report at c_bands before calling an iterative solver
           473 MiB given to the printing process from OS
           289 MiB allocation reported by mallinfo(arena+hblkhd)
        693471 MiB available memory on the node where the printing process lives
------------------
     ethr =  9.05E-06,  avg # of iterations =  3.5

     total cpu time spent up to now is     3842.2 secs

     total energy              =   -7336.73220065 Ry
     estimated scf accuracy    <       0.17161913 Ry

     total magnetization       =     2.89    -0.04    -1.46 Bohr mag/cell
     absolute magnetization    =    11.98 Bohr mag/cell

     iteration #142     ecut=    50.00 Ry     beta= 0.05
     CG style diagonalization

---- Real-time Memory Report at c_bands before calling an iterative solver
           473 MiB given to the printing process from OS
           289 MiB allocation reported by mallinfo(arena+hblkhd)
        694968 MiB available memory on the node where the printing process lives
------------------
     ethr =  9.05E-06,  avg # of iterations =  3.6

     total cpu time spent up to now is     3872.1 secs

     total energy              =   -7336.81676075 Ry
     estimated scf accuracy    <       0.18247684 Ry

     total magnetization       =     2.82     0.17    -1.20 Bohr mag/cell
     absolute magnetization    =    12.82 Bohr mag/cell

     iteration #143     ecut=    50.00 Ry     beta= 0.05
     CG style diagonalization

---- Real-time Memory Report at c_bands before calling an iterative solver
           473 MiB given to the printing process from OS
           289 MiB allocation reported by mallinfo(arena+hblkhd)
        693540 MiB available memory on the node where the printing process lives
------------------
     ethr =  9.05E-06,  avg # of iterations =  4.7

     total cpu time spent up to now is     3912.6 secs

     total energy              =   -7336.89939553 Ry
     estimated scf accuracy    <       0.05804279 Ry

     total magnetization       =     2.77     0.40    -0.87 Bohr mag/cell
     absolute magnetization    =    14.67 Bohr mag/cell

     iteration #144     ecut=    50.00 Ry     beta= 0.05
     CG style diagonalization

---- Real-time Memory Report at c_bands before calling an iterative solver
           473 MiB given to the printing process from OS
           289 MiB allocation reported by mallinfo(arena+hblkhd)
        694105 MiB available memory on the node where the printing process lives
------------------
     ethr =  9.05E-06,  avg # of iterations =  3.7

     total cpu time spent up to now is     3946.4 secs

     total energy              =   -7336.72759798 Ry
     estimated scf accuracy    <       0.06803209 Ry

     total magnetization       =     2.55     0.41    -0.89 Bohr mag/cell
     absolute magnetization    =    14.69 Bohr mag/cell

     iteration #145     ecut=    50.00 Ry     beta= 0.05
     CG style diagonalization

---- Real-time Memory Report at c_bands before calling an iterative solver
           473 MiB given to the printing process from OS
           289 MiB allocation reported by mallinfo(arena+hblkhd)
        694422 MiB available memory on the node where the printing process lives
------------------
     ethr =  9.05E-06,  avg # of iterations =  3.7

     total cpu time spent up to now is     3977.3 secs

     total energy              =   -7336.68207481 Ry
     estimated scf accuracy    <       0.05051228 Ry

     total magnetization       =     2.62     0.13    -0.90 Bohr mag/cell
     absolute magnetization    =    14.10 Bohr mag/cell

     iteration #146     ecut=    50.00 Ry     beta= 0.05
     CG style diagonalization

---- Real-time Memory Report at c_bands before calling an iterative solver
           473 MiB given to the printing process from OS
           289 MiB allocation reported by mallinfo(arena+hblkhd)
        694877 MiB available memory on the node where the printing process lives
------------------
     ethr =  9.05E-06,  avg # of iterations =  3.4

     total cpu time spent up to now is     4004.9 secs

     total energy              =   -7336.70758099 Ry
     estimated scf accuracy    <       0.05499834 Ry

     total magnetization       =     2.63     0.03    -0.98 Bohr mag/cell
     absolute magnetization    =    13.66 Bohr mag/cell

     iteration #147     ecut=    50.00 Ry     beta= 0.05
     CG style diagonalization

---- Real-time Memory Report at c_bands before calling an iterative solver
           473 MiB given to the printing process from OS
           289 MiB allocation reported by mallinfo(arena+hblkhd)
        694759 MiB available memory on the node where the printing process lives
------------------
     ethr =  9.05E-06,  avg # of iterations =  3.1

     total cpu time spent up to now is     4028.8 secs

     total energy              =   -7336.62380697 Ry
     estimated scf accuracy    <       0.05540362 Ry

     total magnetization       =     2.62     0.07    -0.96 Bohr mag/cell
     absolute magnetization    =    13.62 Bohr mag/cell

     iteration #148     ecut=    50.00 Ry     beta= 0.05
     CG style diagonalization

---- Real-time Memory Report at c_bands before calling an iterative solver
           473 MiB given to the printing process from OS
           289 MiB allocation reported by mallinfo(arena+hblkhd)
        693933 MiB available memory on the node where the printing process lives
------------------
     ethr =  9.05E-06,  avg # of iterations =  3.3

     total cpu time spent up to now is     4055.4 secs

     total energy              =   -7336.67153451 Ry
     estimated scf accuracy    <       0.08110755 Ry

     total magnetization       =     2.49    -0.10    -1.14 Bohr mag/cell
     absolute magnetization    =    13.49 Bohr mag/cell

     iteration #149     ecut=    50.00 Ry     beta= 0.05
     CG style diagonalization

---- Real-time Memory Report at c_bands before calling an iterative solver
           473 MiB given to the printing process from OS
           289 MiB allocation reported by mallinfo(arena+hblkhd)
        693375 MiB available memory on the node where the printing process lives
------------------
     ethr =  9.05E-06,  avg # of iterations =  3.3

     total cpu time spent up to now is     4081.6 secs

     total energy              =   -7336.67622486 Ry
     estimated scf accuracy    <       0.05200341 Ry

     total magnetization       =     2.54    -0.00    -1.03 Bohr mag/cell
     absolute magnetization    =    13.39 Bohr mag/cell

     iteration #150     ecut=    50.00 Ry     beta= 0.05
     CG style diagonalization

---- Real-time Memory Report at c_bands before calling an iterative solver
           473 MiB given to the printing process from OS
           289 MiB allocation reported by mallinfo(arena+hblkhd)
        694026 MiB available memory on the node where the printing process lives
------------------
     ethr =  9.05E-06,  avg # of iterations =  3.1

     total cpu time spent up to now is     4105.7 secs

     total energy              =   -7336.67840223 Ry
     estimated scf accuracy    <       0.05090485 Ry

     total magnetization       =     2.55    -0.04    -1.07 Bohr mag/cell
     absolute magnetization    =    13.34 Bohr mag/cell

     iteration #151     ecut=    50.00 Ry     beta= 0.05
     CG style diagonalization

---- Real-time Memory Report at c_bands before calling an iterative solver
           473 MiB given to the printing process from OS
           289 MiB allocation reported by mallinfo(arena+hblkhd)
        693225 MiB available memory on the node where the printing process lives
------------------
     ethr =  9.05E-06,  avg # of iterations =  3.0

     total cpu time spent up to now is     4128.9 secs

     total energy              =   -7336.57861483 Ry
     estimated scf accuracy    <       0.05107351 Ry

     total magnetization       =     2.54    -0.06    -1.11 Bohr mag/cell
     absolute magnetization    =    13.32 Bohr mag/cell

     iteration #152     ecut=    50.00 Ry     beta= 0.05
     CG style diagonalization

---- Real-time Memory Report at c_bands before calling an iterative solver
           473 MiB given to the printing process from OS
           289 MiB allocation reported by mallinfo(arena+hblkhd)
        692592 MiB available memory on the node where the printing process lives
------------------
     ethr =  9.05E-06,  avg # of iterations =  3.3

     total cpu time spent up to now is     4155.2 secs

     total energy              =   -7336.68225285 Ry
     estimated scf accuracy    <       0.07070047 Ry

     total magnetization       =     2.56    -0.06    -1.26 Bohr mag/cell
     absolute magnetization    =    13.24 Bohr mag/cell

     iteration #153     ecut=    50.00 Ry     beta= 0.05
     CG style diagonalization

---- Real-time Memory Report at c_bands before calling an iterative solver
           473 MiB given to the printing process from OS
           289 MiB allocation reported by mallinfo(arena+hblkhd)
        693509 MiB available memory on the node where the printing process lives
------------------
     ethr =  9.05E-06,  avg # of iterations =  3.2

     total cpu time spent up to now is     4180.9 secs

     total energy              =   -7336.55097870 Ry
     estimated scf accuracy    <       0.06836701 Ry

     total magnetization       =     2.61    -0.01    -1.18 Bohr mag/cell
     absolute magnetization    =    13.34 Bohr mag/cell

     iteration #154     ecut=    50.00 Ry     beta= 0.05
     CG style diagonalization

---- Real-time Memory Report at c_bands before calling an iterative solver
           473 MiB given to the printing process from OS
           289 MiB allocation reported by mallinfo(arena+hblkhd)
        692704 MiB available memory on the node where the printing process lives
------------------
     ethr =  9.05E-06,  avg # of iterations =  3.4

     total cpu time spent up to now is     4208.4 secs

     total energy              =   -7336.65194886 Ry
     estimated scf accuracy    <       0.07961193 Ry

     total magnetization       =     2.67    -0.19    -1.24 Bohr mag/cell
     absolute magnetization    =    12.67 Bohr mag/cell

     iteration #155     ecut=    50.00 Ry     beta= 0.05
     CG style diagonalization

---- Real-time Memory Report at c_bands before calling an iterative solver
           473 MiB given to the printing process from OS
           289 MiB allocation reported by mallinfo(arena+hblkhd)
        693536 MiB available memory on the node where the printing process lives
------------------
     ethr =  9.05E-06,  avg # of iterations =  3.7

     total cpu time spent up to now is     4238.8 secs

     total energy              =   -7336.65935086 Ry
     estimated scf accuracy    <       0.06566062 Ry

     total magnetization       =     2.56    -0.06    -0.99 Bohr mag/cell
     absolute magnetization    =    13.17 Bohr mag/cell

     iteration #156     ecut=    50.00 Ry     beta= 0.05
     CG style diagonalization

---- Real-time Memory Report at c_bands before calling an iterative solver
           473 MiB given to the printing process from OS
           289 MiB allocation reported by mallinfo(arena+hblkhd)
        692848 MiB available memory on the node where the printing process lives
------------------
     ethr =  9.05E-06,  avg # of iterations =  3.2

     total cpu time spent up to now is     4264.5 secs

     total energy              =   -7336.38332676 Ry
     estimated scf accuracy    <       0.05511808 Ry

     total magnetization       =     2.55    -0.02    -0.88 Bohr mag/cell
     absolute magnetization    =    13.28 Bohr mag/cell

     iteration #157     ecut=    50.00 Ry     beta= 0.05
     CG style diagonalization

---- Real-time Memory Report at c_bands before calling an iterative solver
           473 MiB given to the printing process from OS
           289 MiB allocation reported by mallinfo(arena+hblkhd)
        693595 MiB available memory on the node where the printing process lives
------------------
     ethr =  9.05E-06,  avg # of iterations =  3.9

     total cpu time spent up to now is     4297.3 secs

     total energy              =   -7336.56257862 Ry
     estimated scf accuracy    <       0.08490903 Ry

     total magnetization       =     2.37     0.09    -0.73 Bohr mag/cell
     absolute magnetization    =    13.43 Bohr mag/cell

     iteration #158     ecut=    50.00 Ry     beta= 0.05
     CG style diagonalization

---- Real-time Memory Report at c_bands before calling an iterative solver
           473 MiB given to the printing process from OS
           289 MiB allocation reported by mallinfo(arena+hblkhd)
        694389 MiB available memory on the node where the printing process lives
------------------
     ethr =  9.05E-06,  avg # of iterations =  4.3

     total cpu time spent up to now is     4333.7 secs

     total energy              =   -7336.69053527 Ry
     estimated scf accuracy    <       0.06195561 Ry

     total magnetization       =     2.50     0.20    -0.71 Bohr mag/cell
     absolute magnetization    =    14.53 Bohr mag/cell

     iteration #159     ecut=    50.00 Ry     beta= 0.05
     CG style diagonalization

---- Real-time Memory Report at c_bands before calling an iterative solver
           473 MiB given to the printing process from OS
           289 MiB allocation reported by mallinfo(arena+hblkhd)
        695107 MiB available memory on the node where the printing process lives
------------------
     ethr =  9.05E-06,  avg # of iterations =  3.5

     total cpu time spent up to now is     4361.6 secs

     total energy              =   -7336.75585666 Ry
     estimated scf accuracy    <       0.06984958 Ry

     total magnetization       =     2.37     0.25    -0.76 Bohr mag/cell
     absolute magnetization    =    14.50 Bohr mag/cell

     iteration #160     ecut=    50.00 Ry     beta= 0.05
     CG style diagonalization

---- Real-time Memory Report at c_bands before calling an iterative solver
           473 MiB given to the printing process from OS
           289 MiB allocation reported by mallinfo(arena+hblkhd)
        693640 MiB available memory on the node where the printing process lives
------------------
     ethr =  9.05E-06,  avg # of iterations =  3.4

     total cpu time spent up to now is     4389.1 secs

     total energy              =   -7336.72274941 Ry
     estimated scf accuracy    <       0.06282045 Ry

     total magnetization       =     2.39     0.22    -0.73 Bohr mag/cell
     absolute magnetization    =    14.43 Bohr mag/cell

     iteration #161     ecut=    50.00 Ry     beta= 0.05
     CG style diagonalization

---- Real-time Memory Report at c_bands before calling an iterative solver
           473 MiB given to the printing process from OS
           289 MiB allocation reported by mallinfo(arena+hblkhd)
        693639 MiB available memory on the node where the printing process lives
------------------
     ethr =  9.05E-06,  avg # of iterations =  3.3

     total cpu time spent up to now is     4414.9 secs

     total energy              =   -7336.60899510 Ry
     estimated scf accuracy    <       0.05724298 Ry

     total magnetization       =     2.49     0.29    -0.77 Bohr mag/cell
     absolute magnetization    =    14.54 Bohr mag/cell

     iteration #162     ecut=    50.00 Ry     beta= 0.05
     CG style diagonalization

---- Real-time Memory Report at c_bands before calling an iterative solver
           473 MiB given to the printing process from OS
           289 MiB allocation reported by mallinfo(arena+hblkhd)
        693834 MiB available memory on the node where the printing process lives
------------------
     c_bands:  1 eigenvalues not converged
     ethr =  9.05E-06,  avg # of iterations =  4.1

     total cpu time spent up to now is     4449.4 secs

     total energy              =   -7336.48312798 Ry
     estimated scf accuracy    <       0.06182999 Ry

     total magnetization       =     2.87     0.60    -0.94 Bohr mag/cell
     absolute magnetization    =    15.04 Bohr mag/cell

     iteration #163     ecut=    50.00 Ry     beta= 0.05
     CG style diagonalization

---- Real-time Memory Report at c_bands before calling an iterative solver
           473 MiB given to the printing process from OS
           289 MiB allocation reported by mallinfo(arena+hblkhd)
        693700 MiB available memory on the node where the printing process lives
------------------
     ethr =  9.05E-06,  avg # of iterations =  4.0

     total cpu time spent up to now is     4483.3 secs

     total energy              =   -7336.57339845 Ry
     estimated scf accuracy    <       0.06937042 Ry

     total magnetization       =     2.71     0.49    -0.92 Bohr mag/cell
     absolute magnetization    =    15.01 Bohr mag/cell

     iteration #164     ecut=    50.00 Ry     beta= 0.05
     CG style diagonalization

---- Real-time Memory Report at c_bands before calling an iterative solver
           473 MiB given to the printing process from OS
           289 MiB allocation reported by mallinfo(arena+hblkhd)
        693788 MiB available memory on the node where the printing process lives
------------------
     ethr =  9.05E-06,  avg # of iterations =  3.5

     total cpu time spent up to now is     4511.8 secs

     total energy              =   -7336.59736323 Ry
     estimated scf accuracy    <       0.08750962 Ry

     total magnetization       =     2.70     0.47    -0.95 Bohr mag/cell
     absolute magnetization    =    15.04 Bohr mag/cell

     iteration #165     ecut=    50.00 Ry     beta= 0.05
     CG style diagonalization

---- Real-time Memory Report at c_bands before calling an iterative solver
           473 MiB given to the printing process from OS
           289 MiB allocation reported by mallinfo(arena+hblkhd)
        694302 MiB available memory on the node where the printing process lives
------------------
     ethr =  9.05E-06,  avg # of iterations =  3.9

     total cpu time spent up to now is     4544.0 secs

     total energy              =   -7336.68233012 Ry
     estimated scf accuracy    <       0.05332706 Ry

     total magnetization       =     2.51     0.20    -1.00 Bohr mag/cell
     absolute magnetization    =    14.86 Bohr mag/cell

     iteration #166     ecut=    50.00 Ry     beta= 0.05
     CG style diagonalization

---- Real-time Memory Report at c_bands before calling an iterative solver
           473 MiB given to the printing process from OS
           289 MiB allocation reported by mallinfo(arena+hblkhd)
        693687 MiB available memory on the node where the printing process lives
------------------
     ethr =  9.05E-06,  avg # of iterations =  3.4

     total cpu time spent up to now is     4570.8 secs

     total energy              =   -7336.37792829 Ry
     estimated scf accuracy    <       0.07360718 Ry

     total magnetization       =     2.61     0.20    -0.91 Bohr mag/cell
     absolute magnetization    =    14.71 Bohr mag/cell

     iteration #167     ecut=    50.00 Ry     beta= 0.05
     CG style diagonalization

---- Real-time Memory Report at c_bands before calling an iterative solver
           473 MiB given to the printing process from OS
           289 MiB allocation reported by mallinfo(arena+hblkhd)
        694939 MiB available memory on the node where the printing process lives
------------------
     ethr =  9.05E-06,  avg # of iterations =  4.2

     total cpu time spent up to now is     4605.9 secs

     total energy              =   -7336.46532863 Ry
     estimated scf accuracy    <       0.09277909 Ry

     total magnetization       =     2.06     0.08    -1.05 Bohr mag/cell
     absolute magnetization    =    14.93 Bohr mag/cell

     iteration #168     ecut=    50.00 Ry     beta= 0.05
     CG style diagonalization

---- Real-time Memory Report at c_bands before calling an iterative solver
           473 MiB given to the printing process from OS
           289 MiB allocation reported by mallinfo(arena+hblkhd)
        694478 MiB available memory on the node where the printing process lives
------------------
     ethr =  9.05E-06,  avg # of iterations =  3.6

     total cpu time spent up to now is     4635.3 secs

     total energy              =   -7336.49972304 Ry
     estimated scf accuracy    <       0.05246348 Ry

     total magnetization       =     2.23     0.00    -1.04 Bohr mag/cell
     absolute magnetization    =    14.79 Bohr mag/cell

     iteration #169     ecut=    50.00 Ry     beta= 0.05
     CG style diagonalization

---- Real-time Memory Report at c_bands before calling an iterative solver
           473 MiB given to the printing process from OS
           289 MiB allocation reported by mallinfo(arena+hblkhd)
        694527 MiB available memory on the node where the printing process lives
------------------
     ethr =  9.05E-06,  avg # of iterations =  3.4

     total cpu time spent up to now is     4662.1 secs

     total energy              =   -7336.31163771 Ry
     estimated scf accuracy    <       0.08668075 Ry

     total magnetization       =     2.38     0.09    -0.91 Bohr mag/cell
     absolute magnetization    =    14.80 Bohr mag/cell

     iteration #170     ecut=    50.00 Ry     beta= 0.05
     CG style diagonalization

---- Real-time Memory Report at c_bands before calling an iterative solver
           473 MiB given to the printing process from OS
           289 MiB allocation reported by mallinfo(arena+hblkhd)
        693720 MiB available memory on the node where the printing process lives
------------------
     ethr =  9.05E-06,  avg # of iterations =  3.9

     total cpu time spent up to now is     4695.3 secs

     total energy              =   -7336.26082792 Ry
     estimated scf accuracy    <       0.10971513 Ry

     total magnetization       =     2.08     0.45    -0.96 Bohr mag/cell
     absolute magnetization    =    14.99 Bohr mag/cell

     iteration #171     ecut=    50.00 Ry     beta= 0.05
     CG style diagonalization

---- Real-time Memory Report at c_bands before calling an iterative solver
           473 MiB given to the printing process from OS
           289 MiB allocation reported by mallinfo(arena+hblkhd)
        694605 MiB available memory on the node where the printing process lives
------------------
     ethr =  9.05E-06,  avg # of iterations =  3.4

     total cpu time spent up to now is     4723.1 secs

     total energy              =   -7336.29047599 Ry
     estimated scf accuracy    <       0.12339399 Ry

     total magnetization       =     2.06     0.42    -0.98 Bohr mag/cell
     absolute magnetization    =    14.96 Bohr mag/cell

     iteration #172     ecut=    50.00 Ry     beta= 0.05
     CG style diagonalization

---- Real-time Memory Report at c_bands before calling an iterative solver
           473 MiB given to the printing process from OS
           289 MiB allocation reported by mallinfo(arena+hblkhd)
        694292 MiB available memory on the node where the printing process lives
------------------
     ethr =  9.05E-06,  avg # of iterations =  3.3

     total cpu time spent up to now is     4749.4 secs

     total energy              =   -7336.27684834 Ry
     estimated scf accuracy    <       0.11811466 Ry

     total magnetization       =     2.01     0.40    -1.01 Bohr mag/cell
     absolute magnetization    =    15.00 Bohr mag/cell

     iteration #173     ecut=    50.00 Ry     beta= 0.05
     CG style diagonalization

---- Real-time Memory Report at c_bands before calling an iterative solver
           473 MiB given to the printing process from OS
           289 MiB allocation reported by mallinfo(arena+hblkhd)
        694337 MiB available memory on the node where the printing process lives
------------------
     ethr =  9.05E-06,  avg # of iterations =  3.5

     total cpu time spent up to now is     4778.0 secs

     total energy              =   -7336.24708149 Ry
     estimated scf accuracy    <       0.11486928 Ry

     total magnetization       =     1.82     0.29    -1.07 Bohr mag/cell
     absolute magnetization    =    15.20 Bohr mag/cell

     iteration #174     ecut=    50.00 Ry     beta= 0.05
     CG style diagonalization

---- Real-time Memory Report at c_bands before calling an iterative solver
           473 MiB given to the printing process from OS
           289 MiB allocation reported by mallinfo(arena+hblkhd)
        694303 MiB available memory on the node where the printing process lives
------------------
     ethr =  9.05E-06,  avg # of iterations =  3.4

     total cpu time spent up to now is     4805.4 secs

     total energy              =   -7336.47020505 Ry
     estimated scf accuracy    <       0.16838115 Ry

     total magnetization       =     1.97     0.50    -1.01 Bohr mag/cell
     absolute magnetization    =    15.26 Bohr mag/cell

     iteration #175     ecut=    50.00 Ry     beta= 0.05
     CG style diagonalization

---- Real-time Memory Report at c_bands before calling an iterative solver
           473 MiB given to the printing process from OS
           289 MiB allocation reported by mallinfo(arena+hblkhd)
        695752 MiB available memory on the node where the printing process lives
------------------
     ethr =  9.05E-06,  avg # of iterations =  3.6

     total cpu time spent up to now is     4834.2 secs

     total energy              =   -7336.43834727 Ry
     estimated scf accuracy    <       0.09949115 Ry

     total magnetization       =     2.16     0.27    -0.93 Bohr mag/cell
     absolute magnetization    =    15.54 Bohr mag/cell

     iteration #176     ecut=    50.00 Ry     beta= 0.05
     CG style diagonalization

---- Real-time Memory Report at c_bands before calling an iterative solver
           473 MiB given to the printing process from OS
           289 MiB allocation reported by mallinfo(arena+hblkhd)
        695115 MiB available memory on the node where the printing process lives
------------------
     ethr =  9.05E-06,  avg # of iterations =  3.5

     total cpu time spent up to now is     4862.4 secs

     total energy              =   -7336.44519292 Ry
     estimated scf accuracy    <       0.07627849 Ry

     total magnetization       =     2.42     0.28    -0.89 Bohr mag/cell
     absolute magnetization    =    15.53 Bohr mag/cell

     iteration #177     ecut=    50.00 Ry     beta= 0.05
     CG style diagonalization

---- Real-time Memory Report at c_bands before calling an iterative solver
           473 MiB given to the printing process from OS
           289 MiB allocation reported by mallinfo(arena+hblkhd)
        695577 MiB available memory on the node where the printing process lives
------------------
     ethr =  9.05E-06,  avg # of iterations =  3.3

     total cpu time spent up to now is     4888.7 secs

     total energy              =   -7336.51067218 Ry
     estimated scf accuracy    <       0.07472134 Ry

     total magnetization       =     2.25     0.25    -0.84 Bohr mag/cell
     absolute magnetization    =    15.45 Bohr mag/cell

     iteration #178     ecut=    50.00 Ry     beta= 0.05
     CG style diagonalization

---- Real-time Memory Report at c_bands before calling an iterative solver
           473 MiB given to the printing process from OS
           289 MiB allocation reported by mallinfo(arena+hblkhd)
        695413 MiB available memory on the node where the printing process lives
------------------
     ethr =  9.05E-06,  avg # of iterations =  3.6

     total cpu time spent up to now is     4917.6 secs

     total energy              =   -7336.56072085 Ry
     estimated scf accuracy    <       0.05861170 Ry

     total magnetization       =     2.41     0.15    -1.17 Bohr mag/cell
     absolute magnetization    =    15.41 Bohr mag/cell

     iteration #179     ecut=    50.00 Ry     beta= 0.05
     CG style diagonalization

---- Real-time Memory Report at c_bands before calling an iterative solver
           473 MiB given to the printing process from OS
           289 MiB allocation reported by mallinfo(arena+hblkhd)
        695352 MiB available memory on the node where the printing process lives
------------------
     ethr =  9.05E-06,  avg # of iterations =  3.5

     total cpu time spent up to now is     4945.7 secs

     total energy              =   -7336.50015588 Ry
     estimated scf accuracy    <       0.05451756 Ry

     total magnetization       =     2.51     0.01    -1.24 Bohr mag/cell
     absolute magnetization    =    15.09 Bohr mag/cell

     iteration #180     ecut=    50.00 Ry     beta= 0.05
     CG style diagonalization

---- Real-time Memory Report at c_bands before calling an iterative solver
           473 MiB given to the printing process from OS
           289 MiB allocation reported by mallinfo(arena+hblkhd)
        696702 MiB available memory on the node where the printing process lives
------------------
     ethr =  9.05E-06,  avg # of iterations =  3.3

     total cpu time spent up to now is     4972.1 secs

     total energy              =   -7336.29153966 Ry
     estimated scf accuracy    <       0.06460501 Ry

     total magnetization       =     2.38    -0.14    -1.26 Bohr mag/cell
     absolute magnetization    =    14.87 Bohr mag/cell

     iteration #181     ecut=    50.00 Ry     beta= 0.05
     CG style diagonalization

---- Real-time Memory Report at c_bands before calling an iterative solver
           473 MiB given to the printing process from OS
           289 MiB allocation reported by mallinfo(arena+hblkhd)
        696721 MiB available memory on the node where the printing process lives
------------------
     ethr =  9.05E-06,  avg # of iterations =  3.7

     total cpu time spent up to now is     5002.4 secs

     total energy              =   -7336.31933633 Ry
     estimated scf accuracy    <       0.06412113 Ry

     total magnetization       =     2.36     0.00    -1.02 Bohr mag/cell
     absolute magnetization    =    14.55 Bohr mag/cell

     iteration #182     ecut=    50.00 Ry     beta= 0.05
     CG style diagonalization

---- Real-time Memory Report at c_bands before calling an iterative solver
           473 MiB given to the printing process from OS
           289 MiB allocation reported by mallinfo(arena+hblkhd)
        696331 MiB available memory on the node where the printing process lives
------------------
     ethr =  9.05E-06,  avg # of iterations =  3.5

     total cpu time spent up to now is     5031.0 secs

     total energy              =   -7336.31099836 Ry
     estimated scf accuracy    <       0.09099093 Ry

     total magnetization       =     2.50    -0.19    -1.32 Bohr mag/cell
     absolute magnetization    =    14.93 Bohr mag/cell

     iteration #183     ecut=    50.00 Ry     beta= 0.05
     CG style diagonalization

---- Real-time Memory Report at c_bands before calling an iterative solver
           473 MiB given to the printing process from OS
           289 MiB allocation reported by mallinfo(arena+hblkhd)
        697684 MiB available memory on the node where the printing process lives
------------------
     ethr =  9.05E-06,  avg # of iterations =  3.5

     total cpu time spent up to now is     5058.9 secs

     total energy              =   -7336.36091182 Ry
     estimated scf accuracy    <       0.08455069 Ry

     total magnetization       =     2.27     0.07    -1.29 Bohr mag/cell
     absolute magnetization    =    15.32 Bohr mag/cell

     iteration #184     ecut=    50.00 Ry     beta= 0.05
     CG style diagonalization

---- Real-time Memory Report at c_bands before calling an iterative solver
           473 MiB given to the printing process from OS
           289 MiB allocation reported by mallinfo(arena+hblkhd)
        697536 MiB available memory on the node where the printing process lives
------------------
     ethr =  9.05E-06,  avg # of iterations =  3.2

     total cpu time spent up to now is     5084.4 secs

     total energy              =   -7336.34726966 Ry
     estimated scf accuracy    <       0.08011785 Ry

     total magnetization       =     2.31     0.06    -1.22 Bohr mag/cell
     absolute magnetization    =    15.44 Bohr mag/cell

     iteration #185     ecut=    50.00 Ry     beta= 0.05
     CG style diagonalization

---- Real-time Memory Report at c_bands before calling an iterative solver
           473 MiB given to the printing process from OS
           289 MiB allocation reported by mallinfo(arena+hblkhd)
        696858 MiB available memory on the node where the printing process lives
------------------
     ethr =  9.05E-06,  avg # of iterations =  3.1

     total cpu time spent up to now is     5108.8 secs

     total energy              =   -7336.39345980 Ry
     estimated scf accuracy    <       0.07248806 Ry

     total magnetization       =     2.47     0.23    -1.08 Bohr mag/cell
     absolute magnetization    =    15.50 Bohr mag/cell

     iteration #186     ecut=    50.00 Ry     beta= 0.05
     CG style diagonalization

---- Real-time Memory Report at c_bands before calling an iterative solver
           473 MiB given to the printing process from OS
           289 MiB allocation reported by mallinfo(arena+hblkhd)
        697368 MiB available memory on the node where the printing process lives
------------------
     ethr =  9.05E-06,  avg # of iterations =  3.2

     total cpu time spent up to now is     5133.9 secs

     total energy              =   -7336.39392912 Ry
     estimated scf accuracy    <       0.07149716 Ry

     total magnetization       =     2.50     0.12    -1.21 Bohr mag/cell
     absolute magnetization    =    15.49 Bohr mag/cell

     iteration #187     ecut=    50.00 Ry     beta= 0.05
     CG style diagonalization

---- Real-time Memory Report at c_bands before calling an iterative solver
           473 MiB given to the printing process from OS
           289 MiB allocation reported by mallinfo(arena+hblkhd)
        693900 MiB available memory on the node where the printing process lives
------------------
     ethr =  9.05E-06,  avg # of iterations =  3.4

     total cpu time spent up to now is     5160.6 secs

     total energy              =   -7336.38106005 Ry
     estimated scf accuracy    <       0.06957096 Ry

     total magnetization       =     2.71     0.18    -1.09 Bohr mag/cell
     absolute magnetization    =    15.48 Bohr mag/cell

     iteration #188     ecut=    50.00 Ry     beta= 0.05
     CG style diagonalization

---- Real-time Memory Report at c_bands before calling an iterative solver
           473 MiB given to the printing process from OS
           289 MiB allocation reported by mallinfo(arena+hblkhd)
        693715 MiB available memory on the node where the printing process lives
------------------
     ethr =  9.05E-06,  avg # of iterations =  3.7

     total cpu time spent up to now is     5191.3 secs

     total energy              =   -7336.41318310 Ry
     estimated scf accuracy    <       0.07723391 Ry

     total magnetization       =     2.53     0.49    -1.21 Bohr mag/cell
     absolute magnetization    =    15.43 Bohr mag/cell

     iteration #189     ecut=    50.00 Ry     beta= 0.05
     CG style diagonalization

---- Real-time Memory Report at c_bands before calling an iterative solver
           473 MiB given to the printing process from OS
           289 MiB allocation reported by mallinfo(arena+hblkhd)
        693994 MiB available memory on the node where the printing process lives
------------------
     ethr =  9.05E-06,  avg # of iterations =  3.5

     total cpu time spent up to now is     5219.6 secs

     total energy              =   -7336.57221900 Ry
     estimated scf accuracy    <       0.06741729 Ry

     total magnetization       =     2.46     0.47    -1.16 Bohr mag/cell
     absolute magnetization    =    15.50 Bohr mag/cell

     iteration #190     ecut=    50.00 Ry     beta= 0.05
     CG style diagonalization

---- Real-time Memory Report at c_bands before calling an iterative solver
           473 MiB given to the printing process from OS
           289 MiB allocation reported by mallinfo(arena+hblkhd)
        695083 MiB available memory on the node where the printing process lives
------------------
     ethr =  9.05E-06,  avg # of iterations =  3.7

     total cpu time spent up to now is     5250.0 secs

     total energy              =   -7336.58574972 Ry
     estimated scf accuracy    <       0.05581334 Ry

     total magnetization       =     2.59     0.37    -1.47 Bohr mag/cell
     absolute magnetization    =    15.55 Bohr mag/cell

     iteration #191     ecut=    50.00 Ry     beta= 0.05
     CG style diagonalization

---- Real-time Memory Report at c_bands before calling an iterative solver
           473 MiB given to the printing process from OS
           289 MiB allocation reported by mallinfo(arena+hblkhd)
        693485 MiB available memory on the node where the printing process lives
------------------
     ethr =  9.05E-06,  avg # of iterations =  3.5

     total cpu time spent up to now is     5277.9 secs

     total energy              =   -7336.62799637 Ry
     estimated scf accuracy    <       0.07834559 Ry

     total magnetization       =     2.40     0.32    -1.26 Bohr mag/cell
     absolute magnetization    =    15.32 Bohr mag/cell

     iteration #192     ecut=    50.00 Ry     beta= 0.05
     CG style diagonalization

---- Real-time Memory Report at c_bands before calling an iterative solver
           473 MiB given to the printing process from OS
           289 MiB allocation reported by mallinfo(arena+hblkhd)
        694274 MiB available memory on the node where the printing process lives
------------------
     ethr =  9.05E-06,  avg # of iterations =  3.3

     total cpu time spent up to now is     5304.1 secs

     total energy              =   -7336.43784222 Ry
     estimated scf accuracy    <       0.08842983 Ry

     total magnetization       =     2.46     0.23    -1.35 Bohr mag/cell
     absolute magnetization    =    15.21 Bohr mag/cell

     iteration #193     ecut=    50.00 Ry     beta= 0.05
     CG style diagonalization

---- Real-time Memory Report at c_bands before calling an iterative solver
           473 MiB given to the printing process from OS
           289 MiB allocation reported by mallinfo(arena+hblkhd)
        694930 MiB available memory on the node where the printing process lives
------------------
     ethr =  9.05E-06,  avg # of iterations =  3.6

     total cpu time spent up to now is     5333.2 secs

     total energy              =   -7336.22311264 Ry
     estimated scf accuracy    <       0.07784861 Ry

     total magnetization       =     2.49     0.23    -1.31 Bohr mag/cell
     absolute magnetization    =    15.15 Bohr mag/cell

     iteration #194     ecut=    50.00 Ry     beta= 0.05
     CG style diagonalization

---- Real-time Memory Report at c_bands before calling an iterative solver
           473 MiB given to the printing process from OS
           289 MiB allocation reported by mallinfo(arena+hblkhd)
        694324 MiB available memory on the node where the printing process lives
------------------
     ethr =  9.05E-06,  avg # of iterations =  4.1

     total cpu time spent up to now is     5367.0 secs

     total energy              =   -7336.39398291 Ry
     estimated scf accuracy    <       0.05994407 Ry

     total magnetization       =     2.16     0.35    -0.94 Bohr mag/cell
     absolute magnetization    =    15.17 Bohr mag/cell

     iteration #195     ecut=    50.00 Ry     beta= 0.05
     CG style diagonalization

---- Real-time Memory Report at c_bands before calling an iterative solver
           473 MiB given to the printing process from OS
           289 MiB allocation reported by mallinfo(arena+hblkhd)
        694370 MiB available memory on the node where the printing process lives
------------------
     ethr =  9.05E-06,  avg # of iterations =  3.6

     total cpu time spent up to now is     5396.8 secs

     total energy              =   -7336.38361606 Ry
     estimated scf accuracy    <       0.06334863 Ry

     total magnetization       =     2.45     0.32    -1.10 Bohr mag/cell
     absolute magnetization    =    15.53 Bohr mag/cell

     iteration #196     ecut=    50.00 Ry     beta= 0.05
     CG style diagonalization

---- Real-time Memory Report at c_bands before calling an iterative solver
           473 MiB given to the printing process from OS
           289 MiB allocation reported by mallinfo(arena+hblkhd)
        693641 MiB available memory on the node where the printing process lives
------------------
     ethr =  9.05E-06,  avg # of iterations =  3.3

     total cpu time spent up to now is     5422.8 secs

     total energy              =   -7336.20552649 Ry
     estimated scf accuracy    <       0.05448081 Ry

     total magnetization       =     2.32     0.17    -0.99 Bohr mag/cell
     absolute magnetization    =    15.31 Bohr mag/cell

     iteration #197     ecut=    50.00 Ry     beta= 0.05
     CG style diagonalization

---- Real-time Memory Report at c_bands before calling an iterative solver
           473 MiB given to the printing process from OS
           289 MiB allocation reported by mallinfo(arena+hblkhd)
        694194 MiB available memory on the node where the printing process lives
------------------
     ethr =  9.05E-06,  avg # of iterations =  3.7

     total cpu time spent up to now is     5453.1 secs

     total energy              =   -7336.25099850 Ry
     estimated scf accuracy    <       0.13252992 Ry

     total magnetization       =     2.20     0.42    -0.93 Bohr mag/cell
     absolute magnetization    =    15.09 Bohr mag/cell

     iteration #198     ecut=    50.00 Ry     beta= 0.05
     CG style diagonalization

---- Real-time Memory Report at c_bands before calling an iterative solver
           473 MiB given to the printing process from OS
           289 MiB allocation reported by mallinfo(arena+hblkhd)
        693573 MiB available memory on the node where the printing process lives
------------------
     ethr =  9.05E-06,  avg # of iterations =  3.4

     total cpu time spent up to now is     5480.7 secs

     total energy              =   -7336.26086841 Ry
     estimated scf accuracy    <       0.11665782 Ry

     total magnetization       =     2.28     0.30    -1.00 Bohr mag/cell
     absolute magnetization    =    15.04 Bohr mag/cell

     iteration #199     ecut=    50.00 Ry     beta= 0.05
     CG style diagonalization

---- Real-time Memory Report at c_bands before calling an iterative solver
           473 MiB given to the printing process from OS
           289 MiB allocation reported by mallinfo(arena+hblkhd)
        693554 MiB available memory on the node where the printing process lives
------------------
     ethr =  9.05E-06,  avg # of iterations =  3.3

     total cpu time spent up to now is     5506.8 secs

     total energy              =   -7336.31651197 Ry
     estimated scf accuracy    <       0.14518408 Ry

     total magnetization       =     2.18     0.16    -0.90 Bohr mag/cell
     absolute magnetization    =    15.12 Bohr mag/cell

     iteration #200     ecut=    50.00 Ry     beta= 0.05
     CG style diagonalization

---- Real-time Memory Report at c_bands before calling an iterative solver
           473 MiB given to the printing process from OS
           289 MiB allocation reported by mallinfo(arena+hblkhd)
        693506 MiB available memory on the node where the printing process lives
------------------
     ethr =  9.05E-06,  avg # of iterations =  3.3

     total cpu time spent up to now is     5532.9 secs

     total energy              =   -7336.30326533 Ry
     estimated scf accuracy    <       0.10372270 Ry

     total magnetization       =     2.12     0.15    -1.10 Bohr mag/cell
     absolute magnetization    =    15.18 Bohr mag/cell

     iteration #201     ecut=    50.00 Ry     beta= 0.05
     CG style diagonalization

---- Real-time Memory Report at c_bands before calling an iterative solver
           473 MiB given to the printing process from OS
           289 MiB allocation reported by mallinfo(arena+hblkhd)
        694774 MiB available memory on the node where the printing process lives
------------------
     ethr =  9.05E-06,  avg # of iterations =  3.2

     total cpu time spent up to now is     5558.5 secs

     total energy              =   -7336.30518770 Ry
     estimated scf accuracy    <       0.12274266 Ry

     total magnetization       =     2.21     0.24    -1.08 Bohr mag/cell
     absolute magnetization    =    15.09 Bohr mag/cell

     iteration #202     ecut=    50.00 Ry     beta= 0.05
     CG style diagonalization

---- Real-time Memory Report at c_bands before calling an iterative solver
           473 MiB given to the printing process from OS
           289 MiB allocation reported by mallinfo(arena+hblkhd)
        693940 MiB available memory on the node where the printing process lives
------------------
     ethr =  9.05E-06,  avg # of iterations =  3.3

     total cpu time spent up to now is     5584.9 secs

     total energy              =   -7336.31111136 Ry
     estimated scf accuracy    <       0.09188601 Ry

     total magnetization       =     2.29     0.14    -1.02 Bohr mag/cell
     absolute magnetization    =    15.06 Bohr mag/cell

     iteration #203     ecut=    50.00 Ry     beta= 0.05
     CG style diagonalization

---- Real-time Memory Report at c_bands before calling an iterative solver
           473 MiB given to the printing process from OS
           289 MiB allocation reported by mallinfo(arena+hblkhd)
        693279 MiB available memory on the node where the printing process lives
------------------
     ethr =  9.05E-06,  avg # of iterations =  3.0

     total cpu time spent up to now is     5608.6 secs

     total energy              =   -7336.30384811 Ry
     estimated scf accuracy    <       0.09721894 Ry

     total magnetization       =     2.28     0.16    -1.01 Bohr mag/cell
     absolute magnetization    =    15.03 Bohr mag/cell

     iteration #204     ecut=    50.00 Ry     beta= 0.05
     CG style diagonalization

---- Real-time Memory Report at c_bands before calling an iterative solver
           473 MiB given to the printing process from OS
           289 MiB allocation reported by mallinfo(arena+hblkhd)
        692586 MiB available memory on the node where the printing process lives
------------------
     ethr =  9.05E-06,  avg # of iterations =  3.2

     total cpu time spent up to now is     5634.2 secs

     total energy              =   -7336.20948817 Ry
     estimated scf accuracy    <       0.17349966 Ry

     total magnetization       =     2.38     0.22    -0.97 Bohr mag/cell
     absolute magnetization    =    15.10 Bohr mag/cell

     iteration #205     ecut=    50.00 Ry     beta= 0.05
     CG style diagonalization

---- Real-time Memory Report at c_bands before calling an iterative solver
           473 MiB given to the printing process from OS
           289 MiB allocation reported by mallinfo(arena+hblkhd)
        691788 MiB available memory on the node where the printing process lives
------------------
     ethr =  9.05E-06,  avg # of iterations =  3.4

     total cpu time spent up to now is     5661.6 secs

     total energy              =   -7336.06202580 Ry
     estimated scf accuracy    <       0.06535869 Ry

     total magnetization       =     2.44    -0.10    -1.23 Bohr mag/cell
     absolute magnetization    =    14.77 Bohr mag/cell

     iteration #206     ecut=    50.00 Ry     beta= 0.05
     CG style diagonalization

---- Real-time Memory Report at c_bands before calling an iterative solver
           473 MiB given to the printing process from OS
           289 MiB allocation reported by mallinfo(arena+hblkhd)
        691910 MiB available memory on the node where the printing process lives
------------------
     ethr =  9.05E-06,  avg # of iterations =  4.3

     total cpu time spent up to now is     5698.3 secs

     total energy              =   -7336.18448107 Ry
     estimated scf accuracy    <       0.05478945 Ry

     total magnetization       =     2.26     0.15    -1.06 Bohr mag/cell
     absolute magnetization    =    14.27 Bohr mag/cell

     iteration #207     ecut=    50.00 Ry     beta= 0.05
     CG style diagonalization

---- Real-time Memory Report at c_bands before calling an iterative solver
           473 MiB given to the printing process from OS
           289 MiB allocation reported by mallinfo(arena+hblkhd)
        692947 MiB available memory on the node where the printing process lives
------------------
     ethr =  9.05E-06,  avg # of iterations =  3.6

     total cpu time spent up to now is     5727.0 secs

     total energy              =   -7336.05786028 Ry
     estimated scf accuracy    <       0.09335726 Ry

     total magnetization       =     2.06    -0.27    -1.14 Bohr mag/cell
     absolute magnetization    =    14.69 Bohr mag/cell

     iteration #208     ecut=    50.00 Ry     beta= 0.05
     CG style diagonalization

---- Real-time Memory Report at c_bands before calling an iterative solver
           473 MiB given to the printing process from OS
           289 MiB allocation reported by mallinfo(arena+hblkhd)
        692124 MiB available memory on the node where the printing process lives
------------------
     ethr =  9.05E-06,  avg # of iterations =  3.9

     total cpu time spent up to now is     5759.3 secs

     total energy              =   -7336.04952791 Ry
     estimated scf accuracy    <       0.06405014 Ry

     total magnetization       =     2.00    -0.21    -1.11 Bohr mag/cell
     absolute magnetization    =    14.64 Bohr mag/cell

     iteration #209     ecut=    50.00 Ry     beta= 0.05
     CG style diagonalization

---- Real-time Memory Report at c_bands before calling an iterative solver
           473 MiB given to the printing process from OS
           289 MiB allocation reported by mallinfo(arena+hblkhd)
        693616 MiB available memory on the node where the printing process lives
------------------
     ethr =  9.05E-06,  avg # of iterations =  3.3

     total cpu time spent up to now is     5785.5 secs

     total energy              =   -7336.08731342 Ry
     estimated scf accuracy    <       0.05977491 Ry

     total magnetization       =     1.98    -0.25    -1.13 Bohr mag/cell
     absolute magnetization    =    14.55 Bohr mag/cell

     iteration #210     ecut=    50.00 Ry     beta= 0.05
     CG style diagonalization

---- Real-time Memory Report at c_bands before calling an iterative solver
           473 MiB given to the printing process from OS
           289 MiB allocation reported by mallinfo(arena+hblkhd)
        693575 MiB available memory on the node where the printing process lives
------------------
     ethr =  9.05E-06,  avg # of iterations =  3.2

     total cpu time spent up to now is     5811.0 secs

     total energy              =   -7336.07436454 Ry
     estimated scf accuracy    <       0.04486900 Ry

     total magnetization       =     2.00    -0.08    -1.13 Bohr mag/cell
     absolute magnetization    =    14.63 Bohr mag/cell

     iteration #211     ecut=    50.00 Ry     beta= 0.05
     CG style diagonalization

---- Real-time Memory Report at c_bands before calling an iterative solver
           473 MiB given to the printing process from OS
           289 MiB allocation reported by mallinfo(arena+hblkhd)
        692044 MiB available memory on the node where the printing process lives
------------------
     ethr =  9.05E-06,  avg # of iterations =  3.1

     total cpu time spent up to now is     5834.6 secs

     total energy              =   -7336.08702145 Ry
     estimated scf accuracy    <       0.03965532 Ry

     total magnetization       =     1.92    -0.09    -1.09 Bohr mag/cell
     absolute magnetization    =    14.53 Bohr mag/cell

     iteration #212     ecut=    50.00 Ry     beta= 0.05
     CG style diagonalization

---- Real-time Memory Report at c_bands before calling an iterative solver
           473 MiB given to the printing process from OS
           289 MiB allocation reported by mallinfo(arena+hblkhd)
        692593 MiB available memory on the node where the printing process lives
------------------
     ethr =  9.05E-06,  avg # of iterations =  3.1

     total cpu time spent up to now is     5859.2 secs

     total energy              =   -7336.04562110 Ry
     estimated scf accuracy    <       0.04422444 Ry

     total magnetization       =     1.99    -0.05    -1.16 Bohr mag/cell
     absolute magnetization    =    14.49 Bohr mag/cell

     iteration #213     ecut=    50.00 Ry     beta= 0.05
     CG style diagonalization

---- Real-time Memory Report at c_bands before calling an iterative solver
           473 MiB given to the printing process from OS
           289 MiB allocation reported by mallinfo(arena+hblkhd)
        691991 MiB available memory on the node where the printing process lives
------------------
     ethr =  9.05E-06,  avg # of iterations =  3.1

     total cpu time spent up to now is     5883.8 secs

     total energy              =   -7336.01910475 Ry
     estimated scf accuracy    <       0.04153982 Ry

     total magnetization       =     2.17    -0.16    -1.15 Bohr mag/cell
     absolute magnetization    =    14.52 Bohr mag/cell

     iteration #214     ecut=    50.00 Ry     beta= 0.05
     CG style diagonalization

---- Real-time Memory Report at c_bands before calling an iterative solver
           473 MiB given to the printing process from OS
           289 MiB allocation reported by mallinfo(arena+hblkhd)
        692673 MiB available memory on the node where the printing process lives
------------------
     ethr =  9.05E-06,  avg # of iterations =  3.1

     total cpu time spent up to now is     5908.5 secs

     total energy              =   -7336.04696495 Ry
     estimated scf accuracy    <       0.04520058 Ry

     total magnetization       =     2.05    -0.11    -1.03 Bohr mag/cell
     absolute magnetization    =    14.44 Bohr mag/cell

     iteration #215     ecut=    50.00 Ry     beta= 0.05
     CG style diagonalization

---- Real-time Memory Report at c_bands before calling an iterative solver
           473 MiB given to the printing process from OS
           289 MiB allocation reported by mallinfo(arena+hblkhd)
        692042 MiB available memory on the node where the printing process lives
------------------
     ethr =  9.05E-06,  avg # of iterations =  3.2

     total cpu time spent up to now is     5933.7 secs

     total energy              =   -7336.04752561 Ry
     estimated scf accuracy    <       0.03137509 Ry

     total magnetization       =     2.00    -0.06    -1.08 Bohr mag/cell
     absolute magnetization    =    14.41 Bohr mag/cell

     iteration #216     ecut=    50.00 Ry     beta= 0.05
     CG style diagonalization

---- Real-time Memory Report at c_bands before calling an iterative solver
           473 MiB given to the printing process from OS
           289 MiB allocation reported by mallinfo(arena+hblkhd)
        692616 MiB available memory on the node where the printing process lives
------------------
     ethr =  7.69E-06,  avg # of iterations =  3.3

     total cpu time spent up to now is     5959.5 secs

     total energy              =   -7336.08859221 Ry
     estimated scf accuracy    <       0.04213659 Ry

     total magnetization       =     1.92     0.01    -0.94 Bohr mag/cell
     absolute magnetization    =    14.37 Bohr mag/cell

     iteration #217     ecut=    50.00 Ry     beta= 0.05
     CG style diagonalization

---- Real-time Memory Report at c_bands before calling an iterative solver
           473 MiB given to the printing process from OS
           289 MiB allocation reported by mallinfo(arena+hblkhd)
        692010 MiB available memory on the node where the printing process lives
------------------
     ethr =  7.69E-06,  avg # of iterations =  3.3

     total cpu time spent up to now is     5985.3 secs

     total energy              =   -7336.03353581 Ry
     estimated scf accuracy    <       0.04822975 Ry

     total magnetization       =     2.05     0.05    -0.94 Bohr mag/cell
     absolute magnetization    =    14.64 Bohr mag/cell

     iteration #218     ecut=    50.00 Ry     beta= 0.05
     CG style diagonalization

---- Real-time Memory Report at c_bands before calling an iterative solver
           473 MiB given to the printing process from OS
           289 MiB allocation reported by mallinfo(arena+hblkhd)
        692122 MiB available memory on the node where the printing process lives
------------------
     ethr =  7.69E-06,  avg # of iterations =  3.5

     total cpu time spent up to now is     6013.2 secs

     total energy              =   -7336.05811435 Ry
     estimated scf accuracy    <       0.04215277 Ry

     total magnetization       =     2.04    -0.02    -1.06 Bohr mag/cell
     absolute magnetization    =    14.59 Bohr mag/cell

     iteration #219     ecut=    50.00 Ry     beta= 0.05
     CG style diagonalization

---- Real-time Memory Report at c_bands before calling an iterative solver
           473 MiB given to the printing process from OS
           289 MiB allocation reported by mallinfo(arena+hblkhd)
        693582 MiB available memory on the node where the printing process lives
------------------
     ethr =  7.69E-06,  avg # of iterations =  3.1

     total cpu time spent up to now is     6037.1 secs

     total energy              =   -7336.05037384 Ry
     estimated scf accuracy    <       0.03130186 Ry

     total magnetization       =     2.03    -0.07    -1.00 Bohr mag/cell
     absolute magnetization    =    14.62 Bohr mag/cell

     iteration #220     ecut=    50.00 Ry     beta= 0.05
     CG style diagonalization

---- Real-time Memory Report at c_bands before calling an iterative solver
           473 MiB given to the printing process from OS
           289 MiB allocation reported by mallinfo(arena+hblkhd)
        692791 MiB available memory on the node where the printing process lives
------------------
     ethr =  7.67E-06,  avg # of iterations =  3.1

     total cpu time spent up to now is     6060.9 secs

     total energy              =   -7336.04670905 Ry
     estimated scf accuracy    <       0.02742734 Ry

     total magnetization       =     2.03    -0.07    -0.97 Bohr mag/cell
     absolute magnetization    =    14.60 Bohr mag/cell

     iteration #221     ecut=    50.00 Ry     beta= 0.05
     CG style diagonalization

---- Real-time Memory Report at c_bands before calling an iterative solver
           473 MiB given to the printing process from OS
           289 MiB allocation reported by mallinfo(arena+hblkhd)
        692711 MiB available memory on the node where the printing process lives
------------------
     ethr =  6.72E-06,  avg # of iterations =  3.0

     total cpu time spent up to now is     6084.0 secs

     total energy              =   -7336.05342496 Ry
     estimated scf accuracy    <       0.02906784 Ry

     total magnetization       =     2.03    -0.03    -0.98 Bohr mag/cell
     absolute magnetization    =    14.61 Bohr mag/cell

     iteration #222     ecut=    50.00 Ry     beta= 0.05
     CG style diagonalization

---- Real-time Memory Report at c_bands before calling an iterative solver
           473 MiB given to the printing process from OS
           289 MiB allocation reported by mallinfo(arena+hblkhd)
        693069 MiB available memory on the node where the printing process lives
------------------
     ethr =  6.72E-06,  avg # of iterations =  3.0

     total cpu time spent up to now is     6107.2 secs

     total energy              =   -7335.90032959 Ry
     estimated scf accuracy    <       0.03394149 Ry

     total magnetization       =     2.07    -0.06    -0.97 Bohr mag/cell
     absolute magnetization    =    14.64 Bohr mag/cell

     iteration #223     ecut=    50.00 Ry     beta= 0.05
     CG style diagonalization

---- Real-time Memory Report at c_bands before calling an iterative solver
           473 MiB given to the printing process from OS
           289 MiB allocation reported by mallinfo(arena+hblkhd)
        693228 MiB available memory on the node where the printing process lives
------------------
     ethr =  6.72E-06,  avg # of iterations =  4.1

     total cpu time spent up to now is     6141.5 secs

     total energy              =   -7335.88619580 Ry
     estimated scf accuracy    <       0.05543306 Ry

     total magnetization       =     2.11    -0.05    -1.07 Bohr mag/cell
     absolute magnetization    =    14.57 Bohr mag/cell

     iteration #224     ecut=    50.00 Ry     beta= 0.05
     CG style diagonalization

---- Real-time Memory Report at c_bands before calling an iterative solver
           473 MiB given to the printing process from OS
           289 MiB allocation reported by mallinfo(arena+hblkhd)
        693434 MiB available memory on the node where the printing process lives
------------------
     ethr =  6.72E-06,  avg # of iterations =  4.2

     total cpu time spent up to now is     6177.2 secs

     total energy              =   -7335.90821219 Ry
     estimated scf accuracy    <       0.05112417 Ry

     total magnetization       =     2.11    -0.16    -1.11 Bohr mag/cell
     absolute magnetization    =    14.69 Bohr mag/cell

     iteration #225     ecut=    50.00 Ry     beta= 0.05
     CG style diagonalization

---- Real-time Memory Report at c_bands before calling an iterative solver
           473 MiB given to the printing process from OS
           289 MiB allocation reported by mallinfo(arena+hblkhd)
        694425 MiB available memory on the node where the printing process lives
------------------
     ethr =  6.72E-06,  avg # of iterations =  3.4

     total cpu time spent up to now is     6204.8 secs

     total energy              =   -7335.93682553 Ry
     estimated scf accuracy    <       0.03757858 Ry

     total magnetization       =     2.16    -0.11    -1.12 Bohr mag/cell
     absolute magnetization    =    14.63 Bohr mag/cell

     iteration #226     ecut=    50.00 Ry     beta= 0.05
     CG style diagonalization

---- Real-time Memory Report at c_bands before calling an iterative solver
           473 MiB given to the printing process from OS
           289 MiB allocation reported by mallinfo(arena+hblkhd)
        694290 MiB available memory on the node where the printing process lives
------------------
     ethr =  6.72E-06,  avg # of iterations =  3.2

     total cpu time spent up to now is     6229.6 secs

     total energy              =   -7335.93022376 Ry
     estimated scf accuracy    <       0.03796467 Ry

     total magnetization       =     1.95    -0.04    -0.91 Bohr mag/cell
     absolute magnetization    =    14.55 Bohr mag/cell

     iteration #227     ecut=    50.00 Ry     beta= 0.05
     CG style diagonalization

---- Real-time Memory Report at c_bands before calling an iterative solver
           473 MiB given to the printing process from OS
           289 MiB allocation reported by mallinfo(arena+hblkhd)
        693480 MiB available memory on the node where the printing process lives
------------------
     ethr =  6.72E-06,  avg # of iterations =  3.1

     total cpu time spent up to now is     6254.2 secs

     total energy              =   -7335.92374361 Ry
     estimated scf accuracy    <       0.02988418 Ry

     total magnetization       =     1.86    -0.05    -0.81 Bohr mag/cell
     absolute magnetization    =    14.56 Bohr mag/cell

     iteration #228     ecut=    50.00 Ry     beta= 0.05
     CG style diagonalization

---- Real-time Memory Report at c_bands before calling an iterative solver
           473 MiB given to the printing process from OS
           289 MiB allocation reported by mallinfo(arena+hblkhd)
        694940 MiB available memory on the node where the printing process lives
------------------
     ethr =  6.72E-06,  avg # of iterations =  3.0

     total cpu time spent up to now is     6277.7 secs

     total energy              =   -7335.96486545 Ry
     estimated scf accuracy    <       0.04138186 Ry

     total magnetization       =     2.00    -0.16    -0.93 Bohr mag/cell
     absolute magnetization    =    14.63 Bohr mag/cell

     iteration #229     ecut=    50.00 Ry     beta= 0.05
     CG style diagonalization

---- Real-time Memory Report at c_bands before calling an iterative solver
           473 MiB given to the printing process from OS
           289 MiB allocation reported by mallinfo(arena+hblkhd)
        693443 MiB available memory on the node where the printing process lives
------------------
     ethr =  6.72E-06,  avg # of iterations =  3.3

     total cpu time spent up to now is     6304.2 secs

     total energy              =   -7335.96423483 Ry
     estimated scf accuracy    <       0.04631598 Ry

     total magnetization       =     1.75    -0.37    -1.04 Bohr mag/cell
     absolute magnetization    =    14.68 Bohr mag/cell

     iteration #230     ecut=    50.00 Ry     beta= 0.05
     CG style diagonalization

---- Real-time Memory Report at c_bands before calling an iterative solver
           473 MiB given to the printing process from OS
           289 MiB allocation reported by mallinfo(arena+hblkhd)
        694273 MiB available memory on the node where the printing process lives
------------------
     ethr =  6.72E-06,  avg # of iterations =  3.2

     total cpu time spent up to now is     6328.8 secs

     total energy              =   -7335.95699910 Ry
     estimated scf accuracy    <       0.03874324 Ry

     total magnetization       =     1.71    -0.33    -0.99 Bohr mag/cell
     absolute magnetization    =    14.62 Bohr mag/cell

     iteration #231     ecut=    50.00 Ry     beta= 0.05
     CG style diagonalization

---- Real-time Memory Report at c_bands before calling an iterative solver
           473 MiB given to the printing process from OS
           289 MiB allocation reported by mallinfo(arena+hblkhd)
        693466 MiB available memory on the node where the printing process lives
------------------
     ethr =  6.72E-06,  avg # of iterations =  3.0

     total cpu time spent up to now is     6351.8 secs

     total energy              =   -7335.91060529 Ry
     estimated scf accuracy    <       0.03603527 Ry

     total magnetization       =     1.75    -0.28    -0.96 Bohr mag/cell
     absolute magnetization    =    14.60 Bohr mag/cell

     iteration #232     ecut=    50.00 Ry     beta= 0.05
     CG style diagonalization

---- Real-time Memory Report at c_bands before calling an iterative solver
           473 MiB given to the printing process from OS
           289 MiB allocation reported by mallinfo(arena+hblkhd)
        694035 MiB available memory on the node where the printing process lives
------------------
     ethr =  6.72E-06,  avg # of iterations =  3.3

     total cpu time spent up to now is     6378.0 secs

     total energy              =   -7335.89901185 Ry
     estimated scf accuracy    <       0.07371034 Ry

     total magnetization       =     2.13    -0.18    -0.97 Bohr mag/cell
     absolute magnetization    =    14.72 Bohr mag/cell

     iteration #233     ecut=    50.00 Ry     beta= 0.05
     CG style diagonalization

---- Real-time Memory Report at c_bands before calling an iterative solver
           473 MiB given to the printing process from OS
           289 MiB allocation reported by mallinfo(arena+hblkhd)
        693373 MiB available memory on the node where the printing process lives
------------------
     ethr =  6.72E-06,  avg # of iterations =  3.3

     total cpu time spent up to now is     6403.8 secs

     total energy              =   -7335.90308418 Ry
     estimated scf accuracy    <       0.07288703 Ry

     total magnetization       =     2.17    -0.12    -0.89 Bohr mag/cell
     absolute magnetization    =    14.79 Bohr mag/cell

     iteration #234     ecut=    50.00 Ry     beta= 0.05
     CG style diagonalization

---- Real-time Memory Report at c_bands before calling an iterative solver
           473 MiB given to the printing process from OS
           289 MiB allocation reported by mallinfo(arena+hblkhd)
        693402 MiB available memory on the node where the printing process lives
------------------
     ethr =  6.72E-06,  avg # of iterations =  3.1

     total cpu time spent up to now is     6428.5 secs

     total energy              =   -7335.92074060 Ry
     estimated scf accuracy    <       0.05584622 Ry

     total magnetization       =     2.01    -0.17    -0.83 Bohr mag/cell
     absolute magnetization    =    14.74 Bohr mag/cell

     iteration #235     ecut=    50.00 Ry     beta= 0.05
     CG style diagonalization

---- Real-time Memory Report at c_bands before calling an iterative solver
           473 MiB given to the printing process from OS
           289 MiB allocation reported by mallinfo(arena+hblkhd)
        694159 MiB available memory on the node where the printing process lives
------------------
     ethr =  6.72E-06,  avg # of iterations =  3.3

     total cpu time spent up to now is     6454.0 secs

     total energy              =   -7335.93708256 Ry
     estimated scf accuracy    <       0.06483319 Ry

     total magnetization       =     2.10     0.00    -0.93 Bohr mag/cell
     absolute magnetization    =    14.86 Bohr mag/cell

     iteration #236     ecut=    50.00 Ry     beta= 0.05
     CG style diagonalization

---- Real-time Memory Report at c_bands before calling an iterative solver
           473 MiB given to the printing process from OS
           289 MiB allocation reported by mallinfo(arena+hblkhd)
        693381 MiB available memory on the node where the printing process lives
------------------
     ethr =  6.72E-06,  avg # of iterations =  3.2

     total cpu time spent up to now is     6478.9 secs

     total energy              =   -7335.93117934 Ry
     estimated scf accuracy    <       0.05038568 Ry

     total magnetization       =     2.06     0.03    -0.97 Bohr mag/cell
     absolute magnetization    =    14.98 Bohr mag/cell

     iteration #237     ecut=    50.00 Ry     beta= 0.05
     CG style diagonalization

---- Real-time Memory Report at c_bands before calling an iterative solver
           473 MiB given to the printing process from OS
           289 MiB allocation reported by mallinfo(arena+hblkhd)
        694769 MiB available memory on the node where the printing process lives
------------------
     ethr =  6.72E-06,  avg # of iterations =  3.2

     total cpu time spent up to now is     6503.9 secs

     total energy              =   -7335.93713018 Ry
     estimated scf accuracy    <       0.04103478 Ry

     total magnetization       =     1.99     0.02    -0.97 Bohr mag/cell
     absolute magnetization    =    15.03 Bohr mag/cell

     iteration #238     ecut=    50.00 Ry     beta= 0.05
     CG style diagonalization

---- Real-time Memory Report at c_bands before calling an iterative solver
           473 MiB given to the printing process from OS
           289 MiB allocation reported by mallinfo(arena+hblkhd)
        693993 MiB available memory on the node where the printing process lives
------------------
     ethr =  6.72E-06,  avg # of iterations =  3.0

     total cpu time spent up to now is     6527.3 secs

     total energy              =   -7335.94799889 Ry
     estimated scf accuracy    <       0.03607905 Ry

     total magnetization       =     1.97     0.05    -0.92 Bohr mag/cell
     absolute magnetization    =    15.03 Bohr mag/cell

     iteration #239     ecut=    50.00 Ry     beta= 0.05
     CG style diagonalization

---- Real-time Memory Report at c_bands before calling an iterative solver
           473 MiB given to the printing process from OS
           289 MiB allocation reported by mallinfo(arena+hblkhd)
        694110 MiB available memory on the node where the printing process lives
------------------
     ethr =  6.72E-06,  avg # of iterations =  3.2

     total cpu time spent up to now is     6552.7 secs

     total energy              =   -7335.91273572 Ry
     estimated scf accuracy    <       0.07722709 Ry

     total magnetization       =     1.94    -0.07    -0.91 Bohr mag/cell
     absolute magnetization    =    15.01 Bohr mag/cell

     iteration #240     ecut=    50.00 Ry     beta= 0.05
     CG style diagonalization

---- Real-time Memory Report at c_bands before calling an iterative solver
           473 MiB given to the printing process from OS
           289 MiB allocation reported by mallinfo(arena+hblkhd)
        694188 MiB available memory on the node where the printing process lives
------------------
     ethr =  6.72E-06,  avg # of iterations =  3.2

     total cpu time spent up to now is     6578.1 secs

     total energy              =   -7335.91332993 Ry
     estimated scf accuracy    <       0.07114052 Ry

     total magnetization       =     2.05    -0.02    -0.97 Bohr mag/cell
     absolute magnetization    =    15.07 Bohr mag/cell

     iteration #241     ecut=    50.00 Ry     beta= 0.05
     CG style diagonalization

---- Real-time Memory Report at c_bands before calling an iterative solver
           473 MiB given to the printing process from OS
           289 MiB allocation reported by mallinfo(arena+hblkhd)
        693535 MiB available memory on the node where the printing process lives
------------------
     ethr =  6.72E-06,  avg # of iterations =  3.1

     total cpu time spent up to now is     6602.2 secs

     total energy              =   -7335.91778960 Ry
     estimated scf accuracy    <       0.04169972 Ry

     total magnetization       =     1.93     0.07    -0.94 Bohr mag/cell
     absolute magnetization    =    15.04 Bohr mag/cell

     iteration #242     ecut=    50.00 Ry     beta= 0.05
     CG style diagonalization

---- Real-time Memory Report at c_bands before calling an iterative solver
           473 MiB given to the printing process from OS
           289 MiB allocation reported by mallinfo(arena+hblkhd)
        694297 MiB available memory on the node where the printing process lives
------------------
     ethr =  6.72E-06,  avg # of iterations =  3.1

     total cpu time spent up to now is     6626.5 secs

     total energy              =   -7335.92798487 Ry
     estimated scf accuracy    <       0.04899704 Ry

     total magnetization       =     1.79     0.02    -0.85 Bohr mag/cell
     absolute magnetization    =    14.97 Bohr mag/cell

     iteration #243     ecut=    50.00 Ry     beta= 0.05
     CG style diagonalization

---- Real-time Memory Report at c_bands before calling an iterative solver
           473 MiB given to the printing process from OS
           289 MiB allocation reported by mallinfo(arena+hblkhd)
        694013 MiB available memory on the node where the printing process lives
------------------
     ethr =  6.72E-06,  avg # of iterations =  3.2

     total cpu time spent up to now is     6651.7 secs

     total energy              =   -7335.92044715 Ry
     estimated scf accuracy    <       0.04505750 Ry

     total magnetization       =     2.06    -0.03    -0.99 Bohr mag/cell
     absolute magnetization    =    15.05 Bohr mag/cell

     iteration #244     ecut=    50.00 Ry     beta= 0.05
     CG style diagonalization

---- Real-time Memory Report at c_bands before calling an iterative solver
           473 MiB given to the printing process from OS
           289 MiB allocation reported by mallinfo(arena+hblkhd)
        694208 MiB available memory on the node where the printing process lives
------------------
     ethr =  6.72E-06,  avg # of iterations =  3.2

     total cpu time spent up to now is     6676.8 secs

     total energy              =   -7335.91979776 Ry
     estimated scf accuracy    <       0.03127481 Ry

     total magnetization       =     1.88    -0.09    -0.91 Bohr mag/cell
     absolute magnetization    =    14.93 Bohr mag/cell

     iteration #245     ecut=    50.00 Ry     beta= 0.05
     CG style diagonalization

---- Real-time Memory Report at c_bands before calling an iterative solver
           473 MiB given to the printing process from OS
           289 MiB allocation reported by mallinfo(arena+hblkhd)
        693352 MiB available memory on the node where the printing process lives
------------------
     ethr =  6.72E-06,  avg # of iterations =  3.0

     total cpu time spent up to now is     6700.0 secs

     total energy              =   -7335.91789769 Ry
     estimated scf accuracy    <       0.03898246 Ry

     total magnetization       =     1.87    -0.09    -0.95 Bohr mag/cell
     absolute magnetization    =    14.91 Bohr mag/cell

     iteration #246     ecut=    50.00 Ry     beta= 0.05
     CG style diagonalization

---- Real-time Memory Report at c_bands before calling an iterative solver
           473 MiB given to the printing process from OS
           289 MiB allocation reported by mallinfo(arena+hblkhd)
        693277 MiB available memory on the node where the printing process lives
------------------
     ethr =  6.72E-06,  avg # of iterations =  3.0

     total cpu time spent up to now is     6723.3 secs

     total energy              =   -7335.90177124 Ry
     estimated scf accuracy    <       0.03711969 Ry

     total magnetization       =     1.80    -0.15    -0.93 Bohr mag/cell
     absolute magnetization    =    14.88 Bohr mag/cell

     iteration #247     ecut=    50.00 Ry     beta= 0.05
     CG style diagonalization

---- Real-time Memory Report at c_bands before calling an iterative solver
           473 MiB given to the printing process from OS
           289 MiB allocation reported by mallinfo(arena+hblkhd)
        694821 MiB available memory on the node where the printing process lives
------------------
     ethr =  6.72E-06,  avg # of iterations =  3.2

     total cpu time spent up to now is     6748.3 secs

     total energy              =   -7335.85232384 Ry
     estimated scf accuracy    <       0.04879628 Ry

     total magnetization       =     1.81    -0.25    -0.98 Bohr mag/cell
     absolute magnetization    =    15.02 Bohr mag/cell

     iteration #248     ecut=    50.00 Ry     beta= 0.05
     CG style diagonalization

---- Real-time Memory Report at c_bands before calling an iterative solver
           473 MiB given to the printing process from OS
           289 MiB allocation reported by mallinfo(arena+hblkhd)
        694870 MiB available memory on the node where the printing process lives
------------------
     ethr =  6.72E-06,  avg # of iterations =  3.5

     total cpu time spent up to now is     6777.2 secs

     total energy              =   -7335.85017642 Ry
     estimated scf accuracy    <       0.16098236 Ry

     total magnetization       =     1.45    -0.43    -0.79 Bohr mag/cell
     absolute magnetization    =    15.01 Bohr mag/cell

     iteration #249     ecut=    50.00 Ry     beta= 0.05
     CG style diagonalization

---- Real-time Memory Report at c_bands before calling an iterative solver
           473 MiB given to the printing process from OS
           289 MiB allocation reported by mallinfo(arena+hblkhd)
        695385 MiB available memory on the node where the printing process lives
------------------
     ethr =  6.72E-06,  avg # of iterations =  3.5

     total cpu time spent up to now is     6806.5 secs

     total energy              =   -7335.84324987 Ry
     estimated scf accuracy    <       0.11741117 Ry

     total magnetization       =     1.45    -0.27    -0.73 Bohr mag/cell
     absolute magnetization    =    15.13 Bohr mag/cell

     iteration #250     ecut=    50.00 Ry     beta= 0.05
     CG style diagonalization

---- Real-time Memory Report at c_bands before calling an iterative solver
           473 MiB given to the printing process from OS
           289 MiB allocation reported by mallinfo(arena+hblkhd)
        697335 MiB available memory on the node where the printing process lives
------------------
     ethr =  6.72E-06,  avg # of iterations =  3.0

     total cpu time spent up to now is     6830.6 secs

     total energy              =   -7335.84521588 Ry
     estimated scf accuracy    <       0.12756895 Ry

     total magnetization       =     1.45    -0.24    -0.76 Bohr mag/cell
     absolute magnetization    =    15.19 Bohr mag/cell

     iteration #251     ecut=    50.00 Ry     beta= 0.05
     CG style diagonalization

---- Real-time Memory Report at c_bands before calling an iterative solver
           473 MiB given to the printing process from OS
           289 MiB allocation reported by mallinfo(arena+hblkhd)
        695481 MiB available memory on the node where the printing process lives
------------------
     ethr =  6.72E-06,  avg # of iterations =  3.1

     total cpu time spent up to now is     6855.0 secs

     total energy              =   -7335.86021807 Ry
     estimated scf accuracy    <       0.14009836 Ry

     total magnetization       =     1.43    -0.18    -0.67 Bohr mag/cell
     absolute magnetization    =    15.16 Bohr mag/cell

     iteration #252     ecut=    50.00 Ry     beta= 0.05
     CG style diagonalization

---- Real-time Memory Report at c_bands before calling an iterative solver
           473 MiB given to the printing process from OS
           289 MiB allocation reported by mallinfo(arena+hblkhd)
        695408 MiB available memory on the node where the printing process lives
------------------
     ethr =  6.72E-06,  avg # of iterations =  3.0

     total cpu time spent up to now is     6879.1 secs

     total energy              =   -7335.86939933 Ry
     estimated scf accuracy    <       0.12003428 Ry

     total magnetization       =     1.53    -0.25    -0.71 Bohr mag/cell
     absolute magnetization    =    15.21 Bohr mag/cell

     iteration #253     ecut=    50.00 Ry     beta= 0.05
     CG style diagonalization

---- Real-time Memory Report at c_bands before calling an iterative solver
           473 MiB given to the printing process from OS
           289 MiB allocation reported by mallinfo(arena+hblkhd)
        695503 MiB available memory on the node where the printing process lives
------------------
     ethr =  6.72E-06,  avg # of iterations =  3.0

     total cpu time spent up to now is     6902.8 secs

     total energy              =   -7335.85926014 Ry
     estimated scf accuracy    <       0.07812054 Ry

     total magnetization       =     1.67    -0.24    -0.78 Bohr mag/cell
     absolute magnetization    =    15.21 Bohr mag/cell

     iteration #254     ecut=    50.00 Ry     beta= 0.05
     CG style diagonalization

---- Real-time Memory Report at c_bands before calling an iterative solver
           473 MiB given to the printing process from OS
           289 MiB allocation reported by mallinfo(arena+hblkhd)
        694666 MiB available memory on the node where the printing process lives
------------------
     ethr =  6.72E-06,  avg # of iterations =  3.0

     total cpu time spent up to now is     6926.3 secs

     total energy              =   -7335.87123593 Ry
     estimated scf accuracy    <       0.11030875 Ry

     total magnetization       =     1.51    -0.19    -0.63 Bohr mag/cell
     absolute magnetization    =    15.19 Bohr mag/cell

     iteration #255     ecut=    50.00 Ry     beta= 0.05
     CG style diagonalization

---- Real-time Memory Report at c_bands before calling an iterative solver
           473 MiB given to the printing process from OS
           289 MiB allocation reported by mallinfo(arena+hblkhd)
        694701 MiB available memory on the node where the printing process lives
------------------
     ethr =  6.72E-06,  avg # of iterations =  3.3

     total cpu time spent up to now is     6952.6 secs

     total energy              =   -7335.87411043 Ry
     estimated scf accuracy    <       0.11231120 Ry

     total magnetization       =     1.41    -0.45    -0.55 Bohr mag/cell
     absolute magnetization    =    15.17 Bohr mag/cell

     iteration #256     ecut=    50.00 Ry     beta= 0.05
     CG style diagonalization

---- Real-time Memory Report at c_bands before calling an iterative solver
           473 MiB given to the printing process from OS
           289 MiB allocation reported by mallinfo(arena+hblkhd)
        694664 MiB available memory on the node where the printing process lives
------------------
     ethr =  6.72E-06,  avg # of iterations =  3.1

     total cpu time spent up to now is     6976.9 secs

     total energy              =   -7335.89152045 Ry
     estimated scf accuracy    <       0.12922363 Ry

     total magnetization       =     1.46    -0.48    -0.56 Bohr mag/cell
     absolute magnetization    =    15.22 Bohr mag/cell

     iteration #257     ecut=    50.00 Ry     beta= 0.05
     CG style diagonalization

---- Real-time Memory Report at c_bands before calling an iterative solver
           473 MiB given to the printing process from OS
           289 MiB allocation reported by mallinfo(arena+hblkhd)
        695117 MiB available memory on the node where the printing process lives
------------------
     ethr =  6.72E-06,  avg # of iterations =  3.1

     total cpu time spent up to now is     7001.3 secs

     total energy              =   -7335.86632560 Ry
     estimated scf accuracy    <       0.10504428 Ry

     total magnetization       =     1.61    -0.44    -0.63 Bohr mag/cell
     absolute magnetization    =    15.15 Bohr mag/cell

     iteration #258     ecut=    50.00 Ry     beta= 0.05
     CG style diagonalization

---- Real-time Memory Report at c_bands before calling an iterative solver
           473 MiB given to the printing process from OS
           289 MiB allocation reported by mallinfo(arena+hblkhd)
        695283 MiB available memory on the node where the printing process lives
------------------
     ethr =  6.72E-06,  avg # of iterations =  3.2

     total cpu time spent up to now is     7026.7 secs

     total energy              =   -7335.84484975 Ry
     estimated scf accuracy    <       0.10048715 Ry

     total magnetization       =     1.73    -0.18    -0.59 Bohr mag/cell
     absolute magnetization    =    15.06 Bohr mag/cell

     iteration #259     ecut=    50.00 Ry     beta= 0.05
     CG style diagonalization

---- Real-time Memory Report at c_bands before calling an iterative solver
           473 MiB given to the printing process from OS
           289 MiB allocation reported by mallinfo(arena+hblkhd)
        695206 MiB available memory on the node where the printing process lives
------------------
     ethr =  6.72E-06,  avg # of iterations =  3.3

     total cpu time spent up to now is     7053.2 secs

     total energy              =   -7335.84216732 Ry
     estimated scf accuracy    <       0.10159284 Ry

     total magnetization       =     1.74    -0.25    -0.50 Bohr mag/cell
     absolute magnetization    =    15.11 Bohr mag/cell

     iteration #260     ecut=    50.00 Ry     beta= 0.05
     CG style diagonalization

---- Real-time Memory Report at c_bands before calling an iterative solver
           473 MiB given to the printing process from OS
           289 MiB allocation reported by mallinfo(arena+hblkhd)
        695357 MiB available memory on the node where the printing process lives
------------------
     ethr =  6.72E-06,  avg # of iterations =  3.2

     total cpu time spent up to now is     7078.1 secs

     total energy              =   -7335.80231966 Ry
     estimated scf accuracy    <       0.09361391 Ry

     total magnetization       =     1.71    -0.21    -0.49 Bohr mag/cell
     absolute magnetization    =    15.17 Bohr mag/cell

     iteration #261     ecut=    50.00 Ry     beta= 0.05
     CG style diagonalization

---- Real-time Memory Report at c_bands before calling an iterative solver
           473 MiB given to the printing process from OS
           289 MiB allocation reported by mallinfo(arena+hblkhd)
        695254 MiB available memory on the node where the printing process lives
------------------
     ethr =  6.72E-06,  avg # of iterations =  3.5

     total cpu time spent up to now is     7106.5 secs

     total energy              =   -7335.77448623 Ry
     estimated scf accuracy    <       0.16164712 Ry

     total magnetization       =     1.76    -0.32    -0.62 Bohr mag/cell
     absolute magnetization    =    15.30 Bohr mag/cell

     iteration #262     ecut=    50.00 Ry     beta= 0.05
     CG style diagonalization

---- Real-time Memory Report at c_bands before calling an iterative solver
           473 MiB given to the printing process from OS
           289 MiB allocation reported by mallinfo(arena+hblkhd)
        695392 MiB available memory on the node where the printing process lives
------------------
     ethr =  6.72E-06,  avg # of iterations =  4.3

     total cpu time spent up to now is     7143.6 secs

     total energy              =   -7335.79242234 Ry
     estimated scf accuracy    <       0.19279829 Ry

     total magnetization       =     1.54    -0.03    -0.41 Bohr mag/cell
     absolute magnetization    =    15.63 Bohr mag/cell

     iteration #263     ecut=    50.00 Ry     beta= 0.05
     CG style diagonalization

---- Real-time Memory Report at c_bands before calling an iterative solver
           473 MiB given to the printing process from OS
           289 MiB allocation reported by mallinfo(arena+hblkhd)
        695663 MiB available memory on the node where the printing process lives
------------------
     ethr =  6.72E-06,  avg # of iterations =  3.4

     total cpu time spent up to now is     7170.7 secs

     total energy              =   -7335.78415050 Ry
     estimated scf accuracy    <       0.19022985 Ry

     total magnetization       =     1.58    -0.08    -0.40 Bohr mag/cell
     absolute magnetization    =    15.70 Bohr mag/cell

     iteration #264     ecut=    50.00 Ry     beta= 0.05
     CG style diagonalization

---- Real-time Memory Report at c_bands before calling an iterative solver
           473 MiB given to the printing process from OS
           289 MiB allocation reported by mallinfo(arena+hblkhd)
        712245 MiB available memory on the node where the printing process lives
------------------
     ethr =  6.72E-06,  avg # of iterations =  3.5

     total cpu time spent up to now is     7199.5 secs

     total energy              =   -7335.79377525 Ry
     estimated scf accuracy    <       0.33706268 Ry

     total magnetization       =     1.58     0.16    -0.64 Bohr mag/cell
     absolute magnetization    =    15.75 Bohr mag/cell

     iteration #265     ecut=    50.00 Ry     beta= 0.05
     CG style diagonalization

---- Real-time Memory Report at c_bands before calling an iterative solver
           473 MiB given to the printing process from OS
           289 MiB allocation reported by mallinfo(arena+hblkhd)
        712296 MiB available memory on the node where the printing process lives
------------------
     ethr =  6.72E-06,  avg # of iterations =  3.4

     total cpu time spent up to now is     7226.6 secs

     total energy              =   -7335.80528775 Ry
     estimated scf accuracy    <       0.24842832 Ry

     total magnetization       =     1.61    -0.11    -0.69 Bohr mag/cell
     absolute magnetization    =    15.65 Bohr mag/cell

     iteration #266     ecut=    50.00 Ry     beta= 0.05
     CG style diagonalization

---- Real-time Memory Report at c_bands before calling an iterative solver
           473 MiB given to the printing process from OS
           289 MiB allocation reported by mallinfo(arena+hblkhd)
        712092 MiB available memory on the node where the printing process lives
------------------
     ethr =  6.72E-06,  avg # of iterations =  3.4

     total cpu time spent up to now is     7253.9 secs

     total energy              =   -7335.81354469 Ry
     estimated scf accuracy    <       0.23356348 Ry

     total magnetization       =     1.58    -0.18    -0.91 Bohr mag/cell
     absolute magnetization    =    15.62 Bohr mag/cell

     iteration #267     ecut=    50.00 Ry     beta= 0.05
     CG style diagonalization

---- Real-time Memory Report at c_bands before calling an iterative solver
           473 MiB given to the printing process from OS
           289 MiB allocation reported by mallinfo(arena+hblkhd)
        710007 MiB available memory on the node where the printing process lives
------------------
     ethr =  6.72E-06,  avg # of iterations =  3.4

     total cpu time spent up to now is     7281.2 secs

     total energy              =   -7335.81928063 Ry
     estimated scf accuracy    <       0.16969612 Ry

     total magnetization       =     1.61    -0.34    -0.93 Bohr mag/cell
     absolute magnetization    =    15.53 Bohr mag/cell

     iteration #268     ecut=    50.00 Ry     beta= 0.05
     CG style diagonalization

---- Real-time Memory Report at c_bands before calling an iterative solver
           473 MiB given to the printing process from OS
           289 MiB allocation reported by mallinfo(arena+hblkhd)
        710185 MiB available memory on the node where the printing process lives
------------------
     ethr =  6.72E-06,  avg # of iterations =  3.7

     total cpu time spent up to now is     7311.3 secs

     total energy              =   -7335.89326636 Ry
     estimated scf accuracy    <       0.13074176 Ry

     total magnetization       =     1.45    -0.46    -0.77 Bohr mag/cell
     absolute magnetization    =    15.62 Bohr mag/cell

     iteration #269     ecut=    50.00 Ry     beta= 0.05
     CG style diagonalization

---- Real-time Memory Report at c_bands before calling an iterative solver
           473 MiB given to the printing process from OS
           289 MiB allocation reported by mallinfo(arena+hblkhd)
        710388 MiB available memory on the node where the printing process lives
------------------
     ethr =  6.72E-06,  avg # of iterations =  4.5

     total cpu time spent up to now is     7349.7 secs

     total energy              =   -7335.82963002 Ry
     estimated scf accuracy    <       0.09527805 Ry

     total magnetization       =     1.28    -0.47    -0.59 Bohr mag/cell
     absolute magnetization    =    15.25 Bohr mag/cell

     iteration #270     ecut=    50.00 Ry     beta= 0.05
     CG style diagonalization

---- Real-time Memory Report at c_bands before calling an iterative solver
           473 MiB given to the printing process from OS
           289 MiB allocation reported by mallinfo(arena+hblkhd)
        710505 MiB available memory on the node where the printing process lives
------------------
     ethr =  6.72E-06,  avg # of iterations =  4.4

     total cpu time spent up to now is     7385.9 secs

     total energy              =   -7335.82775534 Ry
     estimated scf accuracy    <       0.04993468 Ry

     total magnetization       =     1.34    -0.23    -0.30 Bohr mag/cell
     absolute magnetization    =    15.20 Bohr mag/cell

     iteration #271     ecut=    50.00 Ry     beta= 0.05
     CG style diagonalization

---- Real-time Memory Report at c_bands before calling an iterative solver
           473 MiB given to the printing process from OS
           289 MiB allocation reported by mallinfo(arena+hblkhd)
        710474 MiB available memory on the node where the printing process lives
------------------
     ethr =  6.72E-06,  avg # of iterations =  3.9

     total cpu time spent up to now is     7418.9 secs

     total energy              =   -7335.73107182 Ry
     estimated scf accuracy    <       0.10991804 Ry

     total magnetization       =     1.09    -0.30    -0.12 Bohr mag/cell
     absolute magnetization    =    15.59 Bohr mag/cell

     iteration #272     ecut=    50.00 Ry     beta= 0.05
     CG style diagonalization

---- Real-time Memory Report at c_bands before calling an iterative solver
           473 MiB given to the printing process from OS
           289 MiB allocation reported by mallinfo(arena+hblkhd)
        710294 MiB available memory on the node where the printing process lives
------------------
     ethr =  6.72E-06,  avg # of iterations =  4.0

     total cpu time spent up to now is     7452.9 secs

     total energy              =   -7335.73948051 Ry
     estimated scf accuracy    <       0.11580566 Ry

     total magnetization       =     1.48    -0.01    -0.45 Bohr mag/cell
     absolute magnetization    =    15.68 Bohr mag/cell

     iteration #273     ecut=    50.00 Ry     beta= 0.05
     CG style diagonalization

---- Real-time Memory Report at c_bands before calling an iterative solver
           475 MiB given to the printing process from OS
           289 MiB allocation reported by mallinfo(arena+hblkhd)
        710401 MiB available memory on the node where the printing process lives
------------------
     ethr =  6.72E-06,  avg # of iterations =  3.6

     total cpu time spent up to now is     7482.5 secs

     total energy              =   -7335.77755252 Ry
     estimated scf accuracy    <       0.14639275 Ry

     total magnetization       =     1.50     0.03    -0.48 Bohr mag/cell
     absolute magnetization    =    15.54 Bohr mag/cell

     iteration #274     ecut=    50.00 Ry     beta= 0.05
     CG style diagonalization

---- Real-time Memory Report at c_bands before calling an iterative solver
           476 MiB given to the printing process from OS
           289 MiB allocation reported by mallinfo(arena+hblkhd)
        710408 MiB available memory on the node where the printing process lives
------------------
     ethr =  6.72E-06,  avg # of iterations =  3.3

     total cpu time spent up to now is     7508.6 secs

     total energy              =   -7335.81037581 Ry
     estimated scf accuracy    <       0.13015059 Ry

     total magnetization       =     1.59    -0.03    -0.56 Bohr mag/cell
     absolute magnetization    =    15.48 Bohr mag/cell

     iteration #275     ecut=    50.00 Ry     beta= 0.05
     CG style diagonalization

---- Real-time Memory Report at c_bands before calling an iterative solver
           478 MiB given to the printing process from OS
           289 MiB allocation reported by mallinfo(arena+hblkhd)
        710291 MiB available memory on the node where the printing process lives
------------------
     ethr =  6.72E-06,  avg # of iterations =  3.2

     total cpu time spent up to now is     7534.2 secs

     total energy              =   -7335.81221859 Ry
     estimated scf accuracy    <       0.12545267 Ry

     total magnetization       =     1.50     0.02    -0.57 Bohr mag/cell
     absolute magnetization    =    15.46 Bohr mag/cell

     iteration #276     ecut=    50.00 Ry     beta= 0.05
     CG style diagonalization

---- Real-time Memory Report at c_bands before calling an iterative solver
           478 MiB given to the printing process from OS
           289 MiB allocation reported by mallinfo(arena+hblkhd)
        710276 MiB available memory on the node where the printing process lives
------------------
     ethr =  6.72E-06,  avg # of iterations =  3.0

     total cpu time spent up to now is     7557.7 secs

     total energy              =   -7335.80058735 Ry
     estimated scf accuracy    <       0.12287572 Ry

     total magnetization       =     1.50     0.02    -0.56 Bohr mag/cell
     absolute magnetization    =    15.46 Bohr mag/cell

     iteration #277     ecut=    50.00 Ry     beta= 0.05
     CG style diagonalization

---- Real-time Memory Report at c_bands before calling an iterative solver
           478 MiB given to the printing process from OS
           289 MiB allocation reported by mallinfo(arena+hblkhd)
        710098 MiB available memory on the node where the printing process lives
------------------
     ethr =  6.72E-06,  avg # of iterations =  3.2

     total cpu time spent up to now is     7582.6 secs

     total energy              =   -7335.79876696 Ry
     estimated scf accuracy    <       0.11273980 Ry

     total magnetization       =     1.48     0.00    -0.49 Bohr mag/cell
     absolute magnetization    =    15.49 Bohr mag/cell

     iteration #278     ecut=    50.00 Ry     beta= 0.05
     CG style diagonalization

---- Real-time Memory Report at c_bands before calling an iterative solver
           478 MiB given to the printing process from OS
           289 MiB allocation reported by mallinfo(arena+hblkhd)
        710089 MiB available memory on the node where the printing process lives
------------------
     ethr =  6.72E-06,  avg # of iterations =  3.0

     total cpu time spent up to now is     7605.8 secs

     total energy              =   -7335.80377230 Ry
     estimated scf accuracy    <       0.09165073 Ry

     total magnetization       =     1.48    -0.02    -0.45 Bohr mag/cell
     absolute magnetization    =    15.46 Bohr mag/cell

     iteration #279     ecut=    50.00 Ry     beta= 0.05
     CG style diagonalization

---- Real-time Memory Report at c_bands before calling an iterative solver
           478 MiB given to the printing process from OS
           289 MiB allocation reported by mallinfo(arena+hblkhd)
        709945 MiB available memory on the node where the printing process lives
------------------
     ethr =  6.72E-06,  avg # of iterations =  3.0

     total cpu time spent up to now is     7629.2 secs

     total energy              =   -7335.76205284 Ry
     estimated scf accuracy    <       0.13080282 Ry

     total magnetization       =     1.48     0.02    -0.53 Bohr mag/cell
     absolute magnetization    =    15.46 Bohr mag/cell

     iteration #280     ecut=    50.00 Ry     beta= 0.05
     CG style diagonalization

---- Real-time Memory Report at c_bands before calling an iterative solver
           478 MiB given to the printing process from OS
           289 MiB allocation reported by mallinfo(arena+hblkhd)
        710122 MiB available memory on the node where the printing process lives
------------------
     ethr =  6.72E-06,  avg # of iterations =  3.3

     total cpu time spent up to now is     7655.6 secs

     total energy              =   -7335.76817595 Ry
     estimated scf accuracy    <       0.19585831 Ry

     total magnetization       =     1.32     0.10    -0.54 Bohr mag/cell
     absolute magnetization    =    15.65 Bohr mag/cell

     iteration #281     ecut=    50.00 Ry     beta= 0.05
     CG style diagonalization

---- Real-time Memory Report at c_bands before calling an iterative solver
           478 MiB given to the printing process from OS
           289 MiB allocation reported by mallinfo(arena+hblkhd)
        710174 MiB available memory on the node where the printing process lives
------------------
     ethr =  6.72E-06,  avg # of iterations =  3.5

     total cpu time spent up to now is     7684.3 secs

     total energy              =   -7335.80421365 Ry
     estimated scf accuracy    <       0.09607936 Ry

     total magnetization       =     1.39    -0.00    -0.33 Bohr mag/cell
     absolute magnetization    =    15.68 Bohr mag/cell

     iteration #282     ecut=    50.00 Ry     beta= 0.05
     CG style diagonalization

---- Real-time Memory Report at c_bands before calling an iterative solver
           478 MiB given to the printing process from OS
           289 MiB allocation reported by mallinfo(arena+hblkhd)
        710076 MiB available memory on the node where the printing process lives
------------------
     ethr =  6.72E-06,  avg # of iterations =  3.4

     total cpu time spent up to now is     7711.9 secs

     total energy              =   -7335.76979400 Ry
     estimated scf accuracy    <       0.07036420 Ry

     total magnetization       =     1.23    -0.07    -0.36 Bohr mag/cell
     absolute magnetization    =    15.70 Bohr mag/cell

     iteration #283     ecut=    50.00 Ry     beta= 0.05
     CG style diagonalization

---- Real-time Memory Report at c_bands before calling an iterative solver
           478 MiB given to the printing process from OS
           289 MiB allocation reported by mallinfo(arena+hblkhd)
        710040 MiB available memory on the node where the printing process lives
------------------
     ethr =  6.72E-06,  avg # of iterations =  3.1

     total cpu time spent up to now is     7736.0 secs

     total energy              =   -7335.76776761 Ry
     estimated scf accuracy    <       0.09285376 Ry

     total magnetization       =     1.23     0.03    -0.33 Bohr mag/cell
     absolute magnetization    =    15.74 Bohr mag/cell

     iteration #284     ecut=    50.00 Ry     beta= 0.05
     CG style diagonalization

---- Real-time Memory Report at c_bands before calling an iterative solver
           478 MiB given to the printing process from OS
           289 MiB allocation reported by mallinfo(arena+hblkhd)
        709929 MiB available memory on the node where the printing process lives
------------------
     ethr =  6.72E-06,  avg # of iterations =  3.1

     total cpu time spent up to now is     7760.1 secs

     total energy              =   -7335.75802903 Ry
     estimated scf accuracy    <       0.10148169 Ry

     total magnetization       =     1.19    -0.00    -0.39 Bohr mag/cell
     absolute magnetization    =    15.80 Bohr mag/cell

     iteration #285     ecut=    50.00 Ry     beta= 0.05
     CG style diagonalization

---- Real-time Memory Report at c_bands before calling an iterative solver
           478 MiB given to the printing process from OS
           289 MiB allocation reported by mallinfo(arena+hblkhd)
        709859 MiB available memory on the node where the printing process lives
------------------
     ethr =  6.72E-06,  avg # of iterations =  3.4

     total cpu time spent up to now is     7787.7 secs

     total energy              =   -7335.74756336 Ry
     estimated scf accuracy    <       0.06885328 Ry

     total magnetization       =     1.21     0.01    -0.33 Bohr mag/cell
     absolute magnetization    =    15.91 Bohr mag/cell

     iteration #286     ecut=    50.00 Ry     beta= 0.05
     CG style diagonalization

---- Real-time Memory Report at c_bands before calling an iterative solver
           478 MiB given to the printing process from OS
           289 MiB allocation reported by mallinfo(arena+hblkhd)
        711939 MiB available memory on the node where the printing process lives
------------------
     ethr =  6.72E-06,  avg # of iterations =  4.0

     total cpu time spent up to now is     7821.7 secs

     total energy              =   -7335.73953303 Ry
     estimated scf accuracy    <       0.05906119 Ry

     total magnetization       =     1.00    -0.11    -0.37 Bohr mag/cell
     absolute magnetization    =    16.16 Bohr mag/cell

     iteration #287     ecut=    50.00 Ry     beta= 0.05
     CG style diagonalization

---- Real-time Memory Report at c_bands before calling an iterative solver
           478 MiB given to the printing process from OS
           289 MiB allocation reported by mallinfo(arena+hblkhd)
        712167 MiB available memory on the node where the printing process lives
------------------
     ethr =  6.72E-06,  avg # of iterations =  3.6

     total cpu time spent up to now is     7851.1 secs

     total energy              =   -7335.74138440 Ry
     estimated scf accuracy    <       0.03071212 Ry

     total magnetization       =     1.18    -0.18    -0.35 Bohr mag/cell
     absolute magnetization    =    16.17 Bohr mag/cell

     iteration #288     ecut=    50.00 Ry     beta= 0.05
     CG style diagonalization

---- Real-time Memory Report at c_bands before calling an iterative solver
           478 MiB given to the printing process from OS
           289 MiB allocation reported by mallinfo(arena+hblkhd)
        712194 MiB available memory on the node where the printing process lives
------------------
     ethr =  6.72E-06,  avg # of iterations =  3.2

     total cpu time spent up to now is     7876.9 secs

     total energy              =   -7335.74200418 Ry
     estimated scf accuracy    <       0.03013396 Ry

     total magnetization       =     1.13    -0.25    -0.30 Bohr mag/cell
     absolute magnetization    =    16.16 Bohr mag/cell

     iteration #289     ecut=    50.00 Ry     beta= 0.05
     CG style diagonalization

---- Real-time Memory Report at c_bands before calling an iterative solver
           478 MiB given to the printing process from OS
           289 MiB allocation reported by mallinfo(arena+hblkhd)
        712054 MiB available memory on the node where the printing process lives
------------------
     ethr =  6.72E-06,  avg # of iterations =  3.3

     total cpu time spent up to now is     7903.2 secs

     total energy              =   -7335.71878872 Ry
     estimated scf accuracy    <       0.03488721 Ry

     total magnetization       =     1.19    -0.04    -0.28 Bohr mag/cell
     absolute magnetization    =    16.14 Bohr mag/cell

     iteration #290     ecut=    50.00 Ry     beta= 0.05
     CG style diagonalization

---- Real-time Memory Report at c_bands before calling an iterative solver
           478 MiB given to the printing process from OS
           289 MiB allocation reported by mallinfo(arena+hblkhd)
        712121 MiB available memory on the node where the printing process lives
------------------
     ethr =  6.72E-06,  avg # of iterations =  4.1

     total cpu time spent up to now is     7937.3 secs

     total energy              =   -7335.71414787 Ry
     estimated scf accuracy    <       0.05875565 Ry

     total magnetization       =     1.21    -0.61    -0.34 Bohr mag/cell
     absolute magnetization    =    16.34 Bohr mag/cell

     iteration #291     ecut=    50.00 Ry     beta= 0.05
     CG style diagonalization

---- Real-time Memory Report at c_bands before calling an iterative solver
           478 MiB given to the printing process from OS
           289 MiB allocation reported by mallinfo(arena+hblkhd)
        712612 MiB available memory on the node where the printing process lives
------------------
     ethr =  6.72E-06,  avg # of iterations =  4.3

     total cpu time spent up to now is     7974.1 secs

     total energy              =   -7335.69917659 Ry
     estimated scf accuracy    <       0.03212731 Ry

     total magnetization       =     1.16    -0.31    -0.07 Bohr mag/cell
     absolute magnetization    =    16.35 Bohr mag/cell

     iteration #292     ecut=    50.00 Ry     beta= 0.05
     CG style diagonalization

---- Real-time Memory Report at c_bands before calling an iterative solver
           478 MiB given to the printing process from OS
           289 MiB allocation reported by mallinfo(arena+hblkhd)
        712688 MiB available memory on the node where the printing process lives
------------------
     ethr =  6.72E-06,  avg # of iterations =  3.7

     total cpu time spent up to now is     8004.7 secs

     total energy              =   -7335.71811169 Ry
     estimated scf accuracy    <       0.06413205 Ry

     total magnetization       =     1.39    -0.32    -0.18 Bohr mag/cell
     absolute magnetization    =    16.20 Bohr mag/cell

     iteration #293     ecut=    50.00 Ry     beta= 0.05
     CG style diagonalization

---- Real-time Memory Report at c_bands before calling an iterative solver
           478 MiB given to the printing process from OS
           289 MiB allocation reported by mallinfo(arena+hblkhd)
        712587 MiB available memory on the node where the printing process lives
------------------
     ethr =  6.72E-06,  avg # of iterations =  3.4

     total cpu time spent up to now is     8032.6 secs

     total energy              =   -7335.69362299 Ry
     estimated scf accuracy    <       0.02211989 Ry

     total magnetization       =     1.25    -0.27    -0.06 Bohr mag/cell
     absolute magnetization    =    16.20 Bohr mag/cell

     iteration #294     ecut=    50.00 Ry     beta= 0.05
     CG style diagonalization

---- Real-time Memory Report at c_bands before calling an iterative solver
           478 MiB given to the printing process from OS
           289 MiB allocation reported by mallinfo(arena+hblkhd)
        712462 MiB available memory on the node where the printing process lives
------------------
     c_bands:  1 eigenvalues not converged
     ethr =  5.42E-06,  avg # of iterations =  3.8

     total cpu time spent up to now is     8064.4 secs

     total energy              =   -7335.68519696 Ry
     estimated scf accuracy    <       0.04756094 Ry

     total magnetization       =     1.09    -0.21     0.10 Bohr mag/cell
     absolute magnetization    =    16.20 Bohr mag/cell

     iteration #295     ecut=    50.00 Ry     beta= 0.05
     CG style diagonalization

---- Real-time Memory Report at c_bands before calling an iterative solver
           478 MiB given to the printing process from OS
           289 MiB allocation reported by mallinfo(arena+hblkhd)
        712595 MiB available memory on the node where the printing process lives
------------------
     c_bands:  1 eigenvalues not converged
     ethr =  5.42E-06,  avg # of iterations =  3.9

     total cpu time spent up to now is     8097.2 secs

     total energy              =   -7335.68864554 Ry
     estimated scf accuracy    <       0.01058024 Ry

     total magnetization       =     1.03    -0.31     0.00 Bohr mag/cell
     absolute magnetization    =    16.15 Bohr mag/cell

     iteration #296     ecut=    50.00 Ry     beta= 0.05
     CG style diagonalization

---- Real-time Memory Report at c_bands before calling an iterative solver
           478 MiB given to the printing process from OS
           289 MiB allocation reported by mallinfo(arena+hblkhd)
        712756 MiB available memory on the node where the printing process lives
------------------
     ethr =  2.59E-06,  avg # of iterations =  4.5

     total cpu time spent up to now is     8135.7 secs

     total energy              =   -7335.69312252 Ry
     estimated scf accuracy    <       0.01615901 Ry

     total magnetization       =     1.04    -0.44     0.02 Bohr mag/cell
     absolute magnetization    =    16.20 Bohr mag/cell

     iteration #297     ecut=    50.00 Ry     beta= 0.05
     CG style diagonalization

---- Real-time Memory Report at c_bands before calling an iterative solver
           478 MiB given to the printing process from OS
           289 MiB allocation reported by mallinfo(arena+hblkhd)
        712776 MiB available memory on the node where the printing process lives
------------------
     ethr =  2.59E-06,  avg # of iterations =  3.8

     total cpu time spent up to now is     8167.7 secs

     total energy              =   -7335.69505851 Ry
     estimated scf accuracy    <       0.01335360 Ry

     total magnetization       =     1.00    -0.34     0.07 Bohr mag/cell
     absolute magnetization    =    16.13 Bohr mag/cell

     iteration #298     ecut=    50.00 Ry     beta= 0.05
     CG style diagonalization

---- Real-time Memory Report at c_bands before calling an iterative solver
           478 MiB given to the printing process from OS
           289 MiB allocation reported by mallinfo(arena+hblkhd)
        712840 MiB available memory on the node where the printing process lives
------------------
     ethr =  2.59E-06,  avg # of iterations =  3.8

     total cpu time spent up to now is     8199.8 secs

     total energy              =   -7335.69239915 Ry
     estimated scf accuracy    <       0.01139889 Ry

     total magnetization       =     0.97    -0.38     0.02 Bohr mag/cell
     absolute magnetization    =    16.12 Bohr mag/cell

     iteration #299     ecut=    50.00 Ry     beta= 0.05
     CG style diagonalization

---- Real-time Memory Report at c_bands before calling an iterative solver
           478 MiB given to the printing process from OS
           289 MiB allocation reported by mallinfo(arena+hblkhd)
        712772 MiB available memory on the node where the printing process lives
------------------
     ethr =  2.59E-06,  avg # of iterations =  3.5

     total cpu time spent up to now is     8228.1 secs

     total energy              =   -7335.68969891 Ry
     estimated scf accuracy    <       0.00752345 Ry

     total magnetization       =     0.99    -0.44     0.02 Bohr mag/cell
     absolute magnetization    =    16.16 Bohr mag/cell

     iteration #300     ecut=    50.00 Ry     beta= 0.05
     CG style diagonalization

---- Real-time Memory Report at c_bands before calling an iterative solver
           478 MiB given to the printing process from OS
           289 MiB allocation reported by mallinfo(arena+hblkhd)
        712691 MiB available memory on the node where the printing process lives
------------------
     ethr =  1.84E-06,  avg # of iterations =  3.6

     total cpu time spent up to now is     8258.1 secs

     total energy              =   -7335.68956150 Ry
     estimated scf accuracy    <       0.00805818 Ry

     total magnetization       =     0.92    -0.51    -0.02 Bohr mag/cell
     absolute magnetization    =    16.20 Bohr mag/cell

     End of self-consistent calculation

     convergence NOT achieved after 300 iterations: stopping

     Writing config to output data dir ./out/aiida.save/ :
     XML data file, charge density distributed wavefunctions

     init_run     :      6.09s CPU     47.88s WALL (       1 calls)
     electrons    :   8041.87s CPU   8209.59s WALL (       1 calls)

     Called by init_run:
     wfcinit      :      2.17s CPU     43.77s WALL (       1 calls)
     wfcinit:atom :      0.00s CPU      0.00s WALL (       1 calls)
     wfcinit:wfcr :      2.10s CPU      2.18s WALL (       1 calls)
     potinit      :      2.27s CPU      2.35s WALL (       1 calls)
     hinit0       :      0.85s CPU      0.87s WALL (       1 calls)

     Called by electrons:
     c_bands      :   6815.91s CPU   6896.61s WALL (     300 calls)
     sum_band     :    509.34s CPU    546.07s WALL (     300 calls)
     v_of_rho     :     15.04s CPU     16.07s WALL (     301 calls)
     v_h          :      0.53s CPU      0.64s WALL (     301 calls)
     v_xc         :     14.50s CPU     15.43s WALL (     301 calls)
     newd         :    195.63s CPU    225.87s WALL (     301 calls)
     PAW_pot      :    488.46s CPU    501.83s WALL (     301 calls)
     mix_rho      :     16.16s CPU     21.20s WALL (     300 calls)

     Called by c_bands:
     init_us_2    :      2.77s CPU      2.94s WALL (     601 calls)
     ccgdiagg     :   6521.07s CPU   6594.55s WALL (     302 calls)
     wfcrot       :    294.04s CPU    300.75s WALL (     302 calls)

     Called by sum_band:
     sum_band:wei :      0.10s CPU      0.11s WALL (     300 calls)
     sum_band:loo :     92.77s CPU     95.88s WALL (     300 calls)
     sum_band:buf :      0.00s CPU      0.00s WALL (     300 calls)
     sum_band:ini :      1.39s CPU      1.41s WALL (     300 calls)
     sum_band:cal :     40.31s CPU     42.02s WALL (     300 calls)
     sum_band:bec :      2.31s CPU      2.33s WALL (     300 calls)
     addusdens    :    373.97s CPU    406.59s WALL (     300 calls)
                                        0.00s GPU  (     300 calls)
     addusd:skk   :      0.60s CPU      0.60s WALL (    1200 calls)
                                        0.00s GPU  (    1200 calls)

     Called by *cgdiagg:
     h_psi        :   2560.89s CPU   2594.76s WALL (  352828 calls)
     s_psi        :   1629.64s CPU   1649.63s WALL (  705354 calls)

     Called by h_psi:
     h_psi:calbec :   1201.91s CPU   1217.60s WALL (  352828 calls)
     vloc_psi     :    400.20s CPU    409.31s WALL (  352828 calls)
                                        0.00s GPU  (  352828 calls)
     add_vuspsi   :    950.23s CPU    959.73s WALL (  352828 calls)
     hs_1psi      :   3158.79s CPU   3194.86s WALL (  352526 calls)
     s_1psi       :   1817.88s CPU   1837.25s WALL (  352526 calls)

     General routines
     calbec       :   2223.33s CPU   2251.58s WALL (  705654 calls)
     fft          :     51.27s CPU     53.93s WALL (   11131 calls)
     ffts         :      1.13s CPU      1.21s WALL (    2404 calls)
     fftw         :    349.66s CPU    357.94s WALL ( 2297848 calls)
     interpolate  :      1.83s CPU      2.20s WALL (    1204 calls)
     davcio       :      0.84s CPU     79.49s WALL (    8244 calls)

     Parallel routines

     PAW routines
     PAW_pot      :    488.46s CPU    501.83s WALL (     301 calls)

     PWSCF        :   8085.45s CPU   8334.64s WALL


   This run was terminated on:   3:58:21   6Aug2026            

=------------------------------------------------------------------------------=
   JOB DONE.
=------------------------------------------------------------------------------=
